# vtk DataFile Version 2.0
geometrically linear steady-state plane stress analysis
ASCII

DATASET UNSTRUCTURED_GRID
POINTS 147 double
  0.000000  0.300000  0.000000
  0.000000  0.250000  0.000000
  0.053258  0.342792  0.000000
  0.053391  0.248424  0.000000
  0.000000  0.200000  0.000000
  0.112620  0.324097  0.000000
  0.104402  0.244103  0.000000
  0.050880  0.197671  0.000000
  0.102135  0.194828  0.000000
  0.000000  0.150000  0.000000
  0.163606  0.315343  0.000000
  0.156058  0.239852  0.000000
  0.049658  0.147612  0.000000
  0.100040  0.144889  0.000000
  0.153119  0.190789  0.000000
  0.215644  0.305834  0.000000
  0.000000  0.100000  0.000000
  0.207760  0.234963  0.000000
  0.048791  0.097462  0.000000
  0.150210  0.140991  0.000000
  0.203985  0.185826  0.000000
  0.098207  0.095281  0.000000
  0.147322  0.090755  0.000000
  0.267475  0.295878  0.000000
  0.000000  0.050000  0.000000
  0.200222  0.135991  0.000000
  0.259387  0.229362  0.000000
  0.046177  0.054460  0.000000
  0.254771  0.180074  0.000000
  0.096136  0.043781  0.000000
  0.196414  0.085819  0.000000
  0.250204  0.130248  0.000000
  0.144328  0.040497  0.000000
  0.000000  0.000000  0.000000
  0.319116  0.285697  0.000000
  0.037978  -0.043739  0.000000
  0.310895  0.223054  0.000000
  0.091502  -0.035061  0.000000
  0.305497  0.173636  0.000000
  0.192735  0.035754  0.000000
  0.245607  0.080132  0.000000
  0.137831  -0.036038  0.000000
  0.300199  0.123818  0.000000
  0.370584  0.275427  0.000000
  0.362262  0.216092  0.000000
  0.241173  0.030146  0.000000
  0.185384  -0.037012  0.000000
  0.294886  0.073746  0.000000
  0.356164  0.166578  0.000000
  0.350206  0.116762  0.000000
  0.233193  -0.038707  0.000000
  0.289691  0.023752  0.000000
  0.421891  0.265170  0.000000
  0.344244  0.066721  0.000000
  0.413477  0.208551  0.000000
  0.406766  0.158971  0.000000
  0.281279  -0.041284  0.000000
  0.400221  0.109153  0.000000
  0.338323  0.016686  0.000000
  0.393678  0.059133  0.000000
  0.473039  0.254991  0.000000
  0.464531  0.200521  0.000000
  0.329634  -0.044854  0.000000
  0.457297  0.150895  0.000000
  0.387100  0.009055  0.000000
  0.450241  0.101072  0.000000
  0.443187  0.051067  0.000000
  0.524026  0.244933  0.000000
  0.378243  -0.049457  0.000000
  0.515425  0.192097  0.000000
  0.507754  0.142435  0.000000
  0.436040  0.000961  0.000000
  0.500262  0.092606  0.000000
  0.492772  0.042613  0.000000
  0.427088  -0.055063  0.000000
  0.574852  0.235018  0.000000
  0.566161  0.183370  0.000000
  0.485150  -0.007500  0.000000
  0.558138  0.133680  0.000000
  0.550284  0.083846  0.000000
  0.476149  -0.061579  0.000000
  0.542431  0.033864  0.000000
  0.625518  0.225254  0.000000
  0.616751  0.174431  0.000000
  0.534431  -0.016240  0.000000
  0.608453  0.124716  0.000000
  0.600309  0.074876  0.000000
  0.525402  -0.068872  0.000000
  0.592163  0.024908  0.000000
  0.676031  0.215643  0.000000
  0.583872  -0.025177  0.000000
  0.667207  0.165358  0.000000
  0.658706  0.115622  0.000000
  0.650337  0.065778  0.000000
  0.574827  -0.076786  0.000000
  0.641964  0.015822  0.000000
  0.633457  -0.034236  0.000000
  0.726404  0.206181  0.000000
  0.717547  0.156222  0.000000
  0.708905  0.106467  0.000000
  0.700369  0.056621  0.000000
  0.624404  -0.085163  0.000000
  0.691826  0.006677  0.000000
  0.683167  -0.043355  0.000000
  0.776652  0.196862  0.000000
  0.767791  0.147082  0.000000
  0.759060  0.097311  0.000000
  0.674111  -0.093854  0.000000
  0.750406  0.047462  0.000000
  0.741740  -0.002472  0.000000
  0.732979  -0.052480  0.000000
  0.826796  0.187686  0.000000
  0.817961  0.137990  0.000000
  0.809182  0.088204  0.000000
  0.723927  -0.102734  0.000000
  0.800446  0.038347  0.000000
  0.791695  -0.011583  0.000000
  0.782869  -0.061573  0.000000
  0.876864  0.178662  0.000000
  0.868078  0.128996  0.000000
  0.773828  -0.111701  0.000000
  0.859275  0.079180  0.000000
  0.850487  0.029305  0.000000
  0.841677  -0.020630  0.000000
  0.832814  -0.070612  0.000000
  0.926863  0.169583  0.000000
  0.823787  -0.120683  0.000000
  0.918151  0.120128  0.000000
  0.909340  0.070257  0.000000
  0.900518  0.020345  0.000000
  0.891674  -0.029607  0.000000
  0.882791  -0.079589  0.000000
  0.873781  -0.129642  0.000000
  0.928636  0.169801  0.000000
  0.968209  0.111338  0.000000
  0.959379  0.061404  0.000000
  0.950537  0.011449  0.000000
  0.941674  -0.038527  0.000000
  0.932782  -0.088517  0.000000
  0.923785  -0.138568  0.000000
  0.939883  0.167580  0.000000
  1.018151  0.102540  0.000000
  1.009325  0.052531  0.000000
  1.000471  0.002534  0.000000
  0.991597  -0.047468  0.000000
  0.982701  -0.097473  0.000000
  0.973748  -0.147502  0.000000

CELLS  240  960
  3  35  27  33
  3  27  24  33
  3  37  29  35
  3  29  27  35
  3  41  32  37
  3  32  29  37
  3  46  39  41
  3  39  32  41
  3  50  45  46
  3  45  39  46
  3  56  51  50
  3  51  45  50
  3  62  58  56
  3  58  51  56
  3  68  64  62
  3  64  58  62
  3  74  71  68
  3  71  64  68
  3  80  77  74
  3  77  71  74
  3  87  84  80
  3  84  77  80
  3  94  90  87
  3  90  84  87
  3  101  96  94
  3  96  90  94
  3  107  103  101
  3  103  96  101
  3  114  110  107
  3  110  103  107
  3  120  117  114
  3  117  110  114
  3  126  124  120
  3  124  117  120
  3  132  131  126
  3  131  124  126
  3  139  138  132
  3  138  131  132
  3  146  145  139
  3  145  138  139
  3  27  18  24
  3  18  16  24
  3  29  21  27
  3  21  18  27
  3  32  22  29
  3  22  21  29
  3  39  30  32
  3  30  22  32
  3  45  40  39
  3  40  30  39
  3  51  47  45
  3  47  40  45
  3  58  53  51
  3  53  47  51
  3  64  59  58
  3  59  53  58
  3  71  66  64
  3  66  59  64
  3  77  73  71
  3  73  66  71
  3  84  81  77
  3  81  73  77
  3  90  88  84
  3  88  81  84
  3  96  95  90
  3  95  88  90
  3  103  102  96
  3  102  95  96
  3  110  109  103
  3  109  102  103
  3  117  116  110
  3  116  109  110
  3  124  123  117
  3  123  116  117
  3  131  130  124
  3  130  123  124
  3  138  137  131
  3  137  130  131
  3  145  144  138
  3  144  137  138
  3  18  12  16
  3  12  9  16
  3  21  13  18
  3  13  12  18
  3  22  19  21
  3  19  13  21
  3  30  25  22
  3  25  19  22
  3  40  31  30
  3  31  25  30
  3  47  42  40
  3  42  31  40
  3  53  49  47
  3  49  42  47
  3  59  57  53
  3  57  49  53
  3  66  65  59
  3  65  57  59
  3  73  72  66
  3  72  65  66
  3  81  79  73
  3  79  72  73
  3  88  86  81
  3  86  79  81
  3  95  93  88
  3  93  86  88
  3  102  100  95
  3  100  93  95
  3  109  108  102
  3  108  100  102
  3  116  115  109
  3  115  108  109
  3  123  122  116
  3  122  115  116
  3  130  129  123
  3  129  122  123
  3  137  136  130
  3  136  129  130
  3  144  143  137
  3  143  136  137
  3  12  7  9
  3  7  4  9
  3  13  8  12
  3  8  7  12
  3  19  14  13
  3  14  8  13
  3  25  20  19
  3  20  14  19
  3  31  28  25
  3  28  20  25
  3  42  38  31
  3  38  28  31
  3  49  48  42
  3  48  38  42
  3  57  55  49
  3  55  48  49
  3  65  63  57
  3  63  55  57
  3  72  70  65
  3  70  63  65
  3  79  78  72
  3  78  70  72
  3  86  85  79
  3  85  78  79
  3  93  92  86
  3  92  85  86
  3  100  99  93
  3  99  92  93
  3  108  106  100
  3  106  99  100
  3  115  113  108
  3  113  106  108
  3  122  121  115
  3  121  113  115
  3  129  128  122
  3  128  121  122
  3  136  135  129
  3  135  128  129
  3  143  142  136
  3  142  135  136
  3  7  3  4
  3  3  1  4
  3  8  6  7
  3  6  3  7
  3  14  11  8
  3  11  6  8
  3  20  17  14
  3  17  11  14
  3  28  26  20
  3  26  17  20
  3  38  36  28
  3  36  26  28
  3  48  44  38
  3  44  36  38
  3  55  54  48
  3  54  44  48
  3  63  61  55
  3  61  54  55
  3  70  69  63
  3  69  61  63
  3  78  76  70
  3  76  69  70
  3  85  83  78
  3  83  76  78
  3  92  91  85
  3  91  83  85
  3  99  98  92
  3  98  91  92
  3  106  105  99
  3  105  98  99
  3  113  112  106
  3  112  105  106
  3  121  119  113
  3  119  112  113
  3  128  127  121
  3  127  119  121
  3  135  134  128
  3  134  127  128
  3  142  141  135
  3  141  134  135
  3  3  2  1
  3  2  0  1
  3  6  5  3
  3  5  2  3
  3  11  10  6
  3  10  5  6
  3  17  15  11
  3  15  10  11
  3  26  23  17
  3  23  15  17
  3  36  34  26
  3  34  23  26
  3  44  43  36
  3  43  34  36
  3  54  52  44
  3  52  43  44
  3  61  60  54
  3  60  52  54
  3  69  67  61
  3  67  60  61
  3  76  75  69
  3  75  67  69
  3  83  82  76
  3  82  75  76
  3  91  89  83
  3  89  82  83
  3  98  97  91
  3  97  89  91
  3  105  104  98
  3  104  97  98
  3  112  111  105
  3  111  104  105
  3  119  118  112
  3  118  111  112
  3  127  125  119
  3  125  118  119
  3  134  133  127
  3  133  125  127
  3  141  140  134
  3  140  133  134

CELL_TYPES 240
5
5
5
5
5
5
5
5
5
5
5
5
5
5
5
5
5
5
5
5
5
5
5
5
5
5
5
5
5
5
5
5
5
5
5
5
5
5
5
5
5
5
5
5
5
5
5
5
5
5
5
5
5
5
5
5
5
5
5
5
5
5
5
5
5
5
5
5
5
5
5
5
5
5
5
5
5
5
5
5
5
5
5
5
5
5
5
5
5
5
5
5
5
5
5
5
5
5
5
5
5
5
5
5
5
5
5
5
5
5
5
5
5
5
5
5
5
5
5
5
5
5
5
5
5
5
5
5
5
5
5
5
5
5
5
5
5
5
5
5
5
5
5
5
5
5
5
5
5
5
5
5
5
5
5
5
5
5
5
5
5
5
5
5
5
5
5
5
5
5
5
5
5
5
5
5
5
5
5
5
5
5
5
5
5
5
5
5
5
5
5
5
5
5
5
5
5
5
5
5
5
5
5
5
5
5
5
5
5
5
5
5
5
5
5
5
5
5
5
5
5
5
5
5
5
5
5
5
5
5
5
5
5
5
5
5
5
5
5
5

CELL_DATA 240
TENSORS strain double
  -0.092069  -0.007567  0.000000
  -0.007567  0.021240  0.000000
  0.000000  0.000000  0.000000

  -0.029375  -0.021356  0.000000
  -0.021356  0.000000  0.000000
  0.000000  0.000000  0.000000

  -0.056665  -0.002292  0.000000
  -0.002292  0.016653  0.000000
  0.000000  0.000000  0.000000

  -0.045525  -0.009506  0.000000
  -0.009506  0.021319  0.000000
  0.000000  0.000000  0.000000

  -0.059764  -0.004372  0.000000
  -0.004372  0.015568  0.000000
  0.000000  0.000000  0.000000

  -0.038354  -0.012101  0.000000
  -0.012101  0.016686  0.000000
  0.000000  0.000000  0.000000

  -0.056280  -0.004790  0.000000
  -0.004790  0.014353  0.000000
  0.000000  0.000000  0.000000

  -0.034854  -0.013146  0.000000
  -0.013146  0.015829  0.000000
  0.000000  0.000000  0.000000

  -0.052576  -0.005013  0.000000
  -0.005013  0.013119  0.000000
  0.000000  0.000000  0.000000

  -0.031645  -0.013550  0.000000
  -0.013550  0.014649  0.000000
  0.000000  0.000000  0.000000

  -0.048236  -0.004928  0.000000
  -0.004928  0.011863  0.000000
  0.000000  0.000000  0.000000

  -0.028682  -0.013306  0.000000
  -0.013306  0.013404  0.000000
  0.000000  0.000000  0.000000

  -0.043304  -0.004605  0.000000
  -0.004605  0.010566  0.000000
  0.000000  0.000000  0.000000

  -0.025774  -0.012530  0.000000
  -0.012530  0.012110  0.000000
  0.000000  0.000000  0.000000

  -0.037902  -0.004146  0.000000
  -0.004146  0.009221  0.000000
  0.000000  0.000000  0.000000

  -0.022812  -0.011365  0.000000
  -0.011365  0.010761  0.000000
  0.000000  0.000000  0.000000

  -0.032231  -0.003649  0.000000
  -0.003649  0.007840  0.000000
  0.000000  0.000000  0.000000

  -0.019765  -0.009965  0.000000
  -0.009965  0.009363  0.000000
  0.000000  0.000000  0.000000

  -0.026535  -0.003185  0.000000
  -0.003185  0.006456  0.000000
  0.000000  0.000000  0.000000

  -0.016667  -0.008480  0.000000
  -0.008480  0.007934  0.000000
  0.000000  0.000000  0.000000

  -0.021060  -0.002785  0.000000
  -0.002785  0.005114  0.000000
  0.000000  0.000000  0.000000

  -0.013600  -0.007026  0.000000
  -0.007026  0.006513  0.000000
  0.000000  0.000000  0.000000

  -0.016014  -0.002447  0.000000
  -0.002447  0.003863  0.000000
  0.000000  0.000000  0.000000

  -0.010670  -0.005679  0.000000
  -0.005679  0.005145  0.000000
  0.000000  0.000000  0.000000

  -0.011552  -0.002146  0.000000
  -0.002146  0.002744  0.000000
  0.000000  0.000000  0.000000

  -0.007981  -0.004470  0.000000
  -0.004470  0.003878  0.000000
  0.000000  0.000000  0.000000

  -0.007776  -0.001850  0.000000
  -0.001850  0.001790  0.000000
  0.000000  0.000000  0.000000

  -0.005624  -0.003398  0.000000
  -0.003398  0.002751  0.000000
  0.000000  0.000000  0.000000

  -0.004746  -0.001529  0.000000
  -0.001529  0.001025  0.000000
  0.000000  0.000000  0.000000

  -0.003664  -0.002453  0.000000
  -0.002453  0.001792  0.000000
  0.000000  0.000000  0.000000

  -0.002487  -0.001173  0.000000
  -0.001173  0.000465  0.000000
  0.000000  0.000000  0.000000

  -0.002145  -0.001624  0.000000
  -0.001624  0.001025  0.000000
  0.000000  0.000000  0.000000

  -0.000983  -0.000788  0.000000
  -0.000788  0.000110  0.000000
  0.000000  0.000000  0.000000

  -0.001079  -0.000918  0.000000
  -0.000918  0.000464  0.000000
  0.000000  0.000000  0.000000

  -0.000167  -0.000410  0.000000
  -0.000410  -0.000053  0.000000
  0.000000  0.000000  0.000000

  -0.000437  -0.000356  0.000000
  -0.000356  0.000109  0.000000
  0.000000  0.000000  0.000000

  0.000105  -0.000103  0.000000
  -0.000103  -0.000065  0.000000
  0.000000  0.000000  0.000000

  -0.000130  0.000009  0.000000
  0.000009  -0.000054  0.000000
  0.000000  0.000000  0.000000

  0.000034  0.000067  0.000000
  0.000067  0.000034  0.000000
  0.000000  0.000000  0.000000

  -0.000056  0.000161  0.000000
  0.000161  -0.000065  0.000000
  0.000000  0.000000  0.000000

  -0.031277  -0.014599  0.000000
  -0.014599  0.003120  0.000000
  0.000000  0.000000  0.000000

  -0.017396  -0.020015  0.000000
  -0.020015  0.000000  0.000000
  0.000000  0.000000  0.000000

  -0.046261  -0.012971  0.000000
  -0.012971  0.011657  0.000000
  0.000000  0.000000  0.000000

  -0.019297  -0.025886  0.000000
  -0.025886  0.004185  0.000000
  0.000000  0.000000  0.000000

  -0.038432  -0.009666  0.000000
  -0.009666  0.009701  0.000000
  0.000000  0.000000  0.000000

  -0.020946  -0.019254  0.000000
  -0.019254  0.011594  0.000000
  0.000000  0.000000  0.000000

  -0.034879  -0.009075  0.000000
  -0.009075  0.008305  0.000000
  0.000000  0.000000  0.000000

  -0.018269  -0.018068  0.000000
  -0.018068  0.009654  0.000000
  0.000000  0.000000  0.000000

  -0.031649  -0.008757  0.000000
  -0.008757  0.007042  0.000000
  0.000000  0.000000  0.000000

  -0.016212  -0.017076  0.000000
  -0.017076  0.008214  0.000000
  0.000000  0.000000  0.000000

  -0.028670  -0.008568  0.000000
  -0.008568  0.005973  0.000000
  0.000000  0.000000  0.000000

  -0.014393  -0.016211  0.000000
  -0.016211  0.006954  0.000000
  0.000000  0.000000  0.000000

  -0.025757  -0.008392  0.000000
  -0.008392  0.005070  0.000000
  0.000000  0.000000  0.000000

  -0.012724  -0.015337  0.000000
  -0.015337  0.005904  0.000000
  0.000000  0.000000  0.000000

  -0.022799  -0.008158  0.000000
  -0.008158  0.004284  0.000000
  0.000000  0.000000  0.000000

  -0.011130  -0.014370  0.000000
  -0.014370  0.005025  0.000000
  0.000000  0.000000  0.000000

  -0.019757  -0.007827  0.000000
  -0.007827  0.003568  0.000000
  0.000000  0.000000  0.000000

  -0.009572  -0.013269  0.000000
  -0.013269  0.004258  0.000000
  0.000000  0.000000  0.000000

  -0.016664  -0.007384  0.000000
  -0.007384  0.002888  0.000000
  0.000000  0.000000  0.000000

  -0.008038  -0.012032  0.000000
  -0.012032  0.003555  0.000000
  0.000000  0.000000  0.000000

  -0.013600  -0.006830  0.000000
  -0.006830  0.002229  0.000000
  0.000000  0.000000  0.000000

  -0.006543  -0.010685  0.000000
  -0.010685  0.002883  0.000000
  0.000000  0.000000  0.000000

  -0.010671  -0.006170  0.000000
  -0.006170  0.001593  0.000000
  0.000000  0.000000  0.000000

  -0.005116  -0.009264  0.000000
  -0.009264  0.002227  0.000000
  0.000000  0.000000  0.000000

  -0.007982  -0.005414  0.000000
  -0.005414  0.000996  0.000000
  0.000000  0.000000  0.000000

  -0.003794  -0.007806  0.000000
  -0.007806  0.001593  0.000000
  0.000000  0.000000  0.000000

  -0.005624  -0.004572  0.000000
  -0.004572  0.000464  0.000000
  0.000000  0.000000  0.000000

  -0.002614  -0.006343  0.000000
  -0.006343  0.000996  0.000000
  0.000000  0.000000  0.000000

  -0.003664  -0.003659  0.000000
  -0.003659  0.000029  0.000000
  0.000000  0.000000  0.000000

  -0.001613  -0.004902  0.000000
  -0.004902  0.000464  0.000000
  0.000000  0.000000  0.000000

  -0.002145  -0.002707  0.000000
  -0.002707  -0.000271  0.000000
  0.000000  0.000000  0.000000

  -0.000827  -0.003516  0.000000
  -0.003516  0.000029  0.000000
  0.000000  0.000000  0.000000

  -0.001079  -0.001775  0.000000
  -0.001775  -0.000404  0.000000
  0.000000  0.000000  0.000000

  -0.000290  -0.002236  0.000000
  -0.002236  -0.000271  0.000000
  0.000000  0.000000  0.000000

  -0.000437  -0.000957  0.000000
  -0.000957  -0.000357  0.000000
  0.000000  0.000000  0.000000

  -0.000019  -0.001142  0.000000
  -0.001142  -0.000404  0.000000
  0.000000  0.000000  0.000000

  -0.000130  -0.000367  0.000000
  -0.000367  -0.000183  0.000000
  0.000000  0.000000  0.000000

  0.000050  -0.000369  0.000000
  -0.000369  -0.000357  0.000000
  0.000000  0.000000  0.000000

  -0.000056  -0.000072  0.000000
  -0.000072  0.000123  0.000000
  0.000000  0.000000  0.000000

  -0.000005  0.000055  0.000000
  0.000055  -0.000183  0.000000
  0.000000  0.000000  0.000000

  -0.017202  -0.011256  0.000000
  -0.011256  0.000507  0.000000
  0.000000  0.000000  0.000000

  0.000285  -0.019759  0.000000
  -0.019759  0.000000  0.000000
  0.000000  0.000000  0.000000

  -0.019820  -0.013835  0.000000
  -0.013835  0.001909  0.000000
  0.000000  0.000000  0.000000

  0.000177  -0.023076  0.000000
  -0.023076  0.000502  0.000000
  0.000000  0.000000  0.000000

  -0.020871  -0.013070  0.000000
  -0.013070  0.002927  0.000000
  0.000000  0.000000  0.000000

  -0.000433  -0.022858  0.000000
  -0.022858  0.001902  0.000000
  0.000000  0.000000  0.000000

  -0.018273  -0.011719  0.000000
  -0.011719  0.002296  0.000000
  0.000000  0.000000  0.000000

  -0.000673  -0.020824  0.000000
  -0.020824  0.002922  0.000000
  0.000000  0.000000  0.000000

  -0.016213  -0.011131  0.000000
  -0.011131  0.001620  0.000000
  0.000000  0.000000  0.000000

  -0.000261  -0.019445  0.000000
  -0.019445  0.002303  0.000000
  0.000000  0.000000  0.000000

  -0.014393  -0.010809  0.000000
  -0.010809  0.001025  0.000000
  0.000000  0.000000  0.000000

  0.000101  -0.018354  0.000000
  -0.018354  0.001625  0.000000
  0.000000  0.000000  0.000000

  -0.012722  -0.010588  0.000000
  -0.010588  0.000541  0.000000
  0.000000  0.000000  0.000000

  0.000364  -0.017374  0.000000
  -0.017374  0.001028  0.000000
  0.000000  0.000000  0.000000

  -0.011128  -0.010347  0.000000
  -0.010347  0.000155  0.000000
  0.000000  0.000000  0.000000

  0.000534  -0.016371  0.000000
  -0.016371  0.000542  0.000000
  0.000000  0.000000  0.000000

  -0.009570  -0.010004  0.000000
  -0.010004  -0.000157  0.000000
  0.000000  0.000000  0.000000

  0.000632  -0.015261  0.000000
  -0.015261  0.000156  0.000000
  0.000000  0.000000  0.000000

  -0.008036  -0.009514  0.000000
  -0.009514  -0.000423  0.000000
  0.000000  0.000000  0.000000

  0.000683  -0.014006  0.000000
  -0.014006  -0.000157  0.000000
  0.000000  0.000000  0.000000

  -0.006542  -0.008859  0.000000
  -0.008859  -0.000665  0.000000
  0.000000  0.000000  0.000000

  0.000711  -0.012607  0.000000
  -0.012607  -0.000423  0.000000
  0.000000  0.000000  0.000000

  -0.005115  -0.008044  0.000000
  -0.008044  -0.000897  0.000000
  0.000000  0.000000  0.000000

  0.000735  -0.011085  0.000000
  -0.011085  -0.000665  0.000000
  0.000000  0.000000  0.000000

  -0.003794  -0.007083  0.000000
  -0.007083  -0.001122  0.000000
  0.000000  0.000000  0.000000

  0.000767  -0.009476  0.000000
  -0.009476  -0.000897  0.000000
  0.000000  0.000000  0.000000

  -0.002614  -0.005999  0.000000
  -0.005999  -0.001326  0.000000
  0.000000  0.000000  0.000000

  0.000816  -0.007816  0.000000
  -0.007816  -0.001122  0.000000
  0.000000  0.000000  0.000000

  -0.001613  -0.004817  0.000000
  -0.004817  -0.001478  0.000000
  0.000000  0.000000  0.000000

  0.000877  -0.006138  0.000000
  -0.006138  -0.001326  0.000000
  0.000000  0.000000  0.000000

  -0.000827  -0.003583  0.000000
  -0.003583  -0.001519  0.000000
  0.000000  0.000000  0.000000

  0.000922  -0.004477  0.000000
  -0.004477  -0.001478  0.000000
  0.000000  0.000000  0.000000

  -0.000290  -0.002371  0.000000
  -0.002371  -0.001377  0.000000
  0.000000  0.000000  0.000000

  0.000892  -0.002890  0.000000
  -0.002890  -0.001519  0.000000
  0.000000  0.000000  0.000000

  -0.000019  -0.001306  0.000000
  -0.001306  -0.000998  0.000000
  0.000000  0.000000  0.000000

  0.000711  -0.001482  0.000000
  -0.001482  -0.001377  0.000000
  0.000000  0.000000  0.000000

  0.000050  -0.000554  0.000000
  -0.000554  -0.000505  0.000000
  0.000000  0.000000  0.000000

  0.000425  -0.000495  0.000000
  -0.000495  -0.000998  0.000000
  0.000000  0.000000  0.000000

  -0.000006  -0.000162  0.000000
  -0.000162  0.000035  0.000000
  0.000000  0.000000  0.000000

  0.000109  0.000051  0.000000
  0.000051  -0.000505  0.000000
  0.000000  0.000000  0.000000

  0.000446  -0.010433  0.000000
  -0.010433  -0.003818  0.000000
  0.000000  0.000000  0.000000

  0.019096  -0.021681  0.000000
  -0.021681  0.000000  0.000000
  0.000000  0.000000  0.000000

  -0.000021  -0.012775  0.000000
  -0.012775  -0.004594  0.000000
  0.000000  0.000000  0.000000

  0.019515  -0.022980  0.000000
  -0.022980  -0.003677  0.000000
  0.000000  0.000000  0.000000

  -0.000540  -0.013016  0.000000
  -0.013016  -0.004308  0.000000
  0.000000  0.000000  0.000000

  0.018550  -0.022443  0.000000
  -0.022443  -0.004523  0.000000
  0.000000  0.000000  0.000000

  -0.000669  -0.012358  0.000000
  -0.012358  -0.004024  0.000000
  0.000000  0.000000  0.000000

  0.017222  -0.021176  0.000000
  -0.021176  -0.004290  0.000000
  0.000000  0.000000  0.000000

  -0.000255  -0.011664  0.000000
  -0.011664  -0.004000  0.000000
  0.000000  0.000000  0.000000

  0.015957  -0.019760  0.000000
  -0.019760  -0.004020  0.000000
  0.000000  0.000000  0.000000

  0.000106  -0.011204  0.000000
  -0.011204  -0.004027  0.000000
  0.000000  0.000000  0.000000

  0.014787  -0.018558  0.000000
  -0.018558  -0.003998  0.000000
  0.000000  0.000000  0.000000

  0.000369  -0.010867  0.000000
  -0.010867  -0.004034  0.000000
  0.000000  0.000000  0.000000

  0.013572  -0.017472  0.000000
  -0.017472  -0.004027  0.000000
  0.000000  0.000000  0.000000

  0.000538  -0.010544  0.000000
  -0.010544  -0.003993  0.000000
  0.000000  0.000000  0.000000

  0.012264  -0.016386  0.000000
  -0.016386  -0.004034  0.000000
  0.000000  0.000000  0.000000

  0.000635  -0.010150  0.000000
  -0.010150  -0.003901  0.000000
  0.000000  0.000000  0.000000

  0.010866  -0.015219  0.000000
  -0.015219  -0.003992  0.000000
  0.000000  0.000000  0.000000

  0.000686  -0.009633  0.000000
  -0.009633  -0.003771  0.000000
  0.000000  0.000000  0.000000

  0.009413  -0.013931  0.000000
  -0.013931  -0.003900  0.000000
  0.000000  0.000000  0.000000

  0.000713  -0.008970  0.000000
  -0.008970  -0.003623  0.000000
  0.000000  0.000000  0.000000

  0.007960  -0.012519  0.000000
  -0.012519  -0.003771  0.000000
  0.000000  0.000000  0.000000

  0.000736  -0.008158  0.000000
  -0.008158  -0.003479  0.000000
  0.000000  0.000000  0.000000

  0.006569  -0.011001  0.000000
  -0.011001  -0.003623  0.000000
  0.000000  0.000000  0.000000

  0.000768  -0.007210  0.000000
  -0.007210  -0.003352  0.000000
  0.000000  0.000000  0.000000

  0.005295  -0.009410  0.000000
  -0.009410  -0.003479  0.000000
  0.000000  0.000000  0.000000

  0.000816  -0.006145  0.000000
  -0.006145  -0.003245  0.000000
  0.000000  0.000000  0.000000

  0.004187  -0.007777  0.000000
  -0.007777  -0.003352  0.000000
  0.000000  0.000000  0.000000

  0.000877  -0.004981  0.000000
  -0.004981  -0.003136  0.000000
  0.000000  0.000000  0.000000

  0.003278  -0.006127  0.000000
  -0.006127  -0.003245  0.000000
  0.000000  0.000000  0.000000

  0.000922  -0.003740  0.000000
  -0.003740  -0.002944  0.000000
  0.000000  0.000000  0.000000

  0.002573  -0.004469  0.000000
  -0.004469  -0.003136  0.000000
  0.000000  0.000000  0.000000

  0.000892  -0.002477  0.000000
  -0.002477  -0.002541  0.000000
  0.000000  0.000000  0.000000

  0.001993  -0.002825  0.000000
  -0.002825  -0.002944  0.000000
  0.000000  0.000000  0.000000

  0.000711  -0.001322  0.000000
  -0.001322  -0.001785  0.000000
  0.000000  0.000000  0.000000

  0.001386  -0.001282  0.000000
  -0.001282  -0.002541  0.000000
  0.000000  0.000000  0.000000

  0.000425  -0.000507  0.000000
  -0.000507  -0.000896  0.000000
  0.000000  0.000000  0.000000

  0.000812  -0.000256  0.000000
  -0.000256  -0.001785  0.000000
  0.000000  0.000000  0.000000

  0.000109  -0.000108  0.000000
  -0.000108  -0.000041  0.000000
  0.000000  0.000000  0.000000

  0.000188  0.000279  0.000000
  0.000279  -0.000896  0.000000
  0.000000  0.000000  0.000000

  0.019170  -0.010448  0.000000
  -0.010448  -0.009412  0.000000
  0.000000  0.000000  0.000000

  0.041611  -0.026390  0.000000
  -0.026390  0.000000  0.000000
  0.000000  0.000000  0.000000

  0.019330  -0.011412  0.000000
  -0.011412  -0.011105  0.000000
  0.000000  0.000000  0.000000

  0.038918  -0.022392  0.000000
  -0.022392  -0.008805  0.000000
  0.000000  0.000000  0.000000

  0.018501  -0.011287  0.000000
  -0.011287  -0.010975  0.000000
  0.000000  0.000000  0.000000

  0.037103  -0.020611  0.000000
  -0.020611  -0.011037  0.000000
  0.000000  0.000000  0.000000

  0.017219  -0.010774  0.000000
  -0.010774  -0.010368  0.000000
  0.000000  0.000000  0.000000

  0.034665  -0.019233  0.000000
  -0.019233  -0.010992  0.000000
  0.000000  0.000000  0.000000

  0.015968  -0.010168  0.000000
  -0.010168  -0.009752  0.000000
  0.000000  0.000000  0.000000

  0.032162  -0.017976  0.000000
  -0.017976  -0.010393  0.000000
  0.000000  0.000000  0.000000

  0.014796  -0.009628  0.000000
  -0.009628  -0.009224  0.000000
  0.000000  0.000000  0.000000

  0.029632  -0.016789  0.000000
  -0.016789  -0.009770  0.000000
  0.000000  0.000000  0.000000

  0.013579  -0.009165  0.000000
  -0.009165  -0.008725  0.000000
  0.000000  0.000000  0.000000

  0.026989  -0.015622  0.000000
  -0.015622  -0.009233  0.000000
  0.000000  0.000000  0.000000

  0.012270  -0.008726  0.000000
  -0.008726  -0.008207  0.000000
  0.000000  0.000000  0.000000

  0.024168  -0.014417  0.000000
  -0.014417  -0.008728  0.000000
  0.000000  0.000000  0.000000

  0.010871  -0.008266  0.000000
  -0.008266  -0.007653  0.000000
  0.000000  0.000000  0.000000

  0.021180  -0.013143  0.000000
  -0.013143  -0.008208  0.000000
  0.000000  0.000000  0.000000

  0.009418  -0.007753  0.000000
  -0.007753  -0.007069  0.000000
  0.000000  0.000000  0.000000

  0.018099  -0.011801  0.000000
  -0.011801  -0.007653  0.000000
  0.000000  0.000000  0.000000

  0.007964  -0.007168  0.000000
  -0.007168  -0.006479  0.000000
  0.000000  0.000000  0.000000

  0.015035  -0.010408  0.000000
  -0.010408  -0.007069  0.000000
  0.000000  0.000000  0.000000

  0.006572  -0.006507  0.000000
  -0.006507  -0.005912  0.000000
  0.000000  0.000000  0.000000

  0.012104  -0.008989  0.000000
  -0.008989  -0.006479  0.000000
  0.000000  0.000000  0.000000

  0.005297  -0.005774  0.000000
  -0.005774  -0.005395  0.000000
  0.000000  0.000000  0.000000

  0.009413  -0.007573  0.000000
  -0.007573  -0.005912  0.000000
  0.000000  0.000000  0.000000

  0.004189  -0.004973  0.000000
  -0.004973  -0.004946  0.000000
  0.000000  0.000000  0.000000

  0.007051  -0.006179  0.000000
  -0.006179  -0.005395  0.000000
  0.000000  0.000000  0.000000

  0.003279  -0.004108  0.000000
  -0.004108  -0.004565  0.000000
  0.000000  0.000000  0.000000

  0.005079  -0.004817  0.000000
  -0.004817  -0.004946  0.000000
  0.000000  0.000000  0.000000

  0.002573  -0.003165  0.000000
  -0.003165  -0.004197  0.000000
  0.000000  0.000000  0.000000

  0.003544  -0.003467  0.000000
  -0.003467  -0.004565  0.000000
  0.000000  0.000000  0.000000

  0.001993  -0.002113  0.000000
  -0.002113  -0.003605  0.000000
  0.000000  0.000000  0.000000

  0.002461  -0.002051  0.000000
  -0.002051  -0.004196  0.000000
  0.000000  0.000000  0.000000

  0.001386  -0.001067  0.000000
  -0.001067  -0.002513  0.000000
  0.000000  0.000000  0.000000

  0.001490  -0.000573  0.000000
  -0.000573  -0.003605  0.000000
  0.000000  0.000000  0.000000

  0.000812  -0.000313  0.000000
  -0.000313  -0.001301  0.000000
  0.000000  0.000000  0.000000

  0.000945  0.000228  0.000000
  0.000228  -0.002513  0.000000
  0.000000  0.000000  0.000000

  0.000188  0.000101  0.000000
  0.000101  0.000186  0.000000
  0.000000  0.000000  0.000000

  0.000331  0.000773  0.000000
  0.000773  -0.001301  0.000000
  0.000000  0.000000  0.000000

  0.040866  -0.009303  0.000000
  -0.009303  -0.017179  0.000000
  0.000000  0.000000  0.000000

  0.109117  -0.043548  0.000000
  -0.043548  0.000000  0.000000
  0.000000  0.000000  0.000000

  0.039491  -0.009123  0.000000
  -0.009123  -0.019772  0.000000
  0.000000  0.000000  0.000000

  0.061185  -0.017778  0.000000
  -0.017778  -0.017776  0.000000
  0.000000  0.000000  0.000000

  0.037163  -0.008781  0.000000
  -0.008781  -0.018846  0.000000
  0.000000  0.000000  0.000000

  0.063248  -0.017515  0.000000
  -0.017515  -0.018998  0.000000
  0.000000  0.000000  0.000000

  0.034644  -0.008287  0.000000
  -0.008287  -0.017694  0.000000
  0.000000  0.000000  0.000000

  0.059251  -0.016624  0.000000
  -0.016624  -0.018375  0.000000
  0.000000  0.000000  0.000000

  0.032123  -0.007547  0.000000
  -0.007547  -0.016453  0.000000
  0.000000  0.000000  0.000000

  0.054649  -0.015487  0.000000
  -0.015487  -0.017335  0.000000
  0.000000  0.000000  0.000000

  0.029599  -0.006678  0.000000
  -0.006678  -0.015229  0.000000
  0.000000  0.000000  0.000000

  0.049634  -0.014064  0.000000
  -0.014064  -0.016200  0.000000
  0.000000  0.000000  0.000000

  0.026968  -0.005800  0.000000
  -0.005800  -0.014015  0.000000
  0.000000  0.000000  0.000000

  0.044274  -0.012427  0.000000
  -0.012427  -0.015069  0.000000
  0.000000  0.000000  0.000000

  0.024159  -0.005000  0.000000
  -0.005000  -0.012784  0.000000
  0.000000  0.000000  0.000000

  0.038687  -0.010712  0.000000
  -0.010712  -0.013926  0.000000
  0.000000  0.000000  0.000000

  0.021180  -0.004320  0.000000
  -0.004320  -0.011536  0.000000
  0.000000  0.000000  0.000000

  0.033018  -0.009038  0.000000
  -0.009038  -0.012743  0.000000
  0.000000  0.000000  0.000000

  0.018104  -0.003768  0.000000
  -0.003768  -0.010293  0.000000
  0.000000  0.000000  0.000000

  0.027437  -0.007484  0.000000
  -0.007484  -0.011522  0.000000
  0.000000  0.000000  0.000000

  0.015040  -0.003326  0.000000
  -0.003326  -0.009091  0.000000
  0.000000  0.000000  0.000000

  0.022110  -0.006089  0.000000
  -0.006089  -0.010291  0.000000
  0.000000  0.000000  0.000000

  0.012109  -0.002966  0.000000
  -0.002966  -0.007969  0.000000
  0.000000  0.000000  0.000000

  0.017187  -0.004865  0.000000
  -0.004865  -0.009093  0.000000
  0.000000  0.000000  0.000000

  0.009417  -0.002655  0.000000
  -0.002655  -0.006962  0.000000
  0.000000  0.000000  0.000000

  0.012782  -0.003802  0.000000
  -0.003802  -0.007972  0.000000
  0.000000  0.000000  0.000000

  0.007053  -0.002367  0.000000
  -0.002367  -0.006095  0.000000
  0.000000  0.000000  0.000000

  0.008971  -0.002883  0.000000
  -0.002883  -0.006963  0.000000
  0.000000  0.000000  0.000000

  0.005081  -0.002078  0.000000
  -0.002078  -0.005383  0.000000
  0.000000  0.000000  0.000000

  0.005798  -0.002080  0.000000
  -0.002080  -0.006094  0.000000
  0.000000  0.000000  0.000000

  0.003545  -0.001755  0.000000
  -0.001755  -0.004832  0.000000
  0.000000  0.000000  0.000000

  0.003292  -0.001355  0.000000
  -0.001355  -0.005381  0.000000
  0.000000  0.000000  0.000000

  0.002461  -0.001292  0.000000
  -0.001292  -0.004399  0.000000
  0.000000  0.000000  0.000000

  0.001530  -0.000612  0.000000
  -0.000612  -0.004829  0.000000
  0.000000  0.000000  0.000000

  0.001490  -0.000342  0.000000
  -0.000342  -0.003117  0.000000
  0.000000  0.000000  0.000000

  0.000910  0.000586  0.000000
  0.000586  -0.004395  0.000000
  0.000000  0.000000  0.000000

  0.000944  0.000397  0.000000
  0.000397  -0.002936  0.000000
  0.000000  0.000000  0.000000

  0.000324  0.003067  0.000000
  0.003067  -0.003110  0.000000
  0.000000  0.000000  0.000000

  0.000330  0.000433  0.000000
  0.000433  -0.001529  0.000000
  0.000000  0.000000  0.000000

  -0.000983  0.001033  0.000000
  0.001033  0.000089  0.000000
  0.000000  0.000000  0.000000
POINT_DATA 147
VECTORS displacements double
  0.000000  0.000000  0.000000
  0.000000  0.000000  0.000000
  0.005240  -0.004182  0.000000
  0.002133  -0.002705  0.000000
  0.000000  0.000000  0.000000
  0.008175  -0.007867  0.000000
  0.004022  -0.005976  0.000000
  0.000953  -0.002165  0.000000
  0.001942  -0.005410  0.000000
  0.000000  0.000000  0.000000
  0.010990  -0.011754  0.000000
  0.005864  -0.010100  0.000000
  0.000014  -0.001962  0.000000
  0.000032  -0.005168  0.000000
  0.002874  -0.009560  0.000000
  0.013610  -0.016501  0.000000
  0.000000  0.000000  0.000000
  0.007599  -0.015036  0.000000
  -0.000864  -0.001988  0.000000
  0.000020  -0.009339  0.000000
  0.003736  -0.014530  0.000000
  -0.001821  -0.005264  0.000000
  -0.002886  -0.009488  0.000000
  0.015951  -0.021999  0.000000
  0.000000  0.000000  0.000000
  -0.000014  -0.014327  0.000000
  0.009215  -0.020730  0.000000
  -0.001398  -0.002032  0.000000
  0.004532  -0.020252  0.000000
  -0.004147  -0.005875  0.000000
  -0.003798  -0.014440  0.000000
  -0.000029  -0.020051  0.000000
  -0.006019  -0.009982  0.000000
  0.000000  0.000000  0.000000
  0.018020  -0.028206  0.000000
  -0.006171  -0.003846  0.000000
  0.010705  -0.027119  0.000000
  -0.008647  -0.007159  0.000000
  0.005268  -0.026664  0.000000
  -0.007756  -0.014879  0.000000
  -0.004609  -0.020131  0.000000
  -0.011368  -0.011064  0.000000
  -0.000026  -0.026462  0.000000
  0.019829  -0.035057  0.000000
  0.012061  -0.034135  0.000000
  -0.009336  -0.020513  0.000000
  -0.013862  -0.015792  0.000000
  -0.005329  -0.026512  0.000000
  0.005945  -0.033702  0.000000
  -0.000009  -0.033500  0.000000
  -0.016114  -0.021273  0.000000
  -0.010776  -0.026841  0.000000
  0.021389  -0.042479  0.000000
  -0.005966  -0.033526  0.000000
  0.013272  -0.041700  0.000000
  0.006556  -0.041291  0.000000
  -0.018115  -0.027471  0.000000
  0.000015  -0.041091  0.000000
  -0.012074  -0.033804  0.000000
  -0.006525  -0.041098  0.000000
  0.022713  -0.050388  0.000000
  0.014331  -0.049732  0.000000
  -0.019863  -0.034325  0.000000
  0.007096  -0.049349  0.000000
  -0.013227  -0.041330  0.000000
  0.000044  -0.049153  0.000000
  -0.007006  -0.049145  0.000000
  0.023816  -0.058696  0.000000
  -0.021364  -0.041758  0.000000
  0.015234  -0.058143  0.000000
  0.007564  -0.057790  0.000000
  -0.014227  -0.049335  0.000000
  0.000076  -0.057600  0.000000
  -0.007411  -0.057579  0.000000
  -0.022629  -0.049684  0.000000
  0.024712  -0.067316  0.000000
  0.015982  -0.066849  0.000000
  -0.015069  -0.057729  0.000000
  0.007959  -0.066525  0.000000
  0.000109  -0.066344  0.000000
  -0.023669  -0.058010  0.000000
  -0.007740  -0.066310  0.000000
  0.025417  -0.076163  0.000000
  0.016584  -0.075767  0.000000
  -0.015756  -0.066424  0.000000
  0.008285  -0.075471  0.000000
  0.000143  -0.075297  0.000000
  -0.024500  -0.066643  0.000000
  -0.007999  -0.075251  0.000000
  0.025949  -0.085158  0.000000
  -0.016294  -0.075332  0.000000
  0.017051  -0.084819  0.000000
  0.008547  -0.084550  0.000000
  0.000179  -0.084382  0.000000
  -0.025140  -0.075495  0.000000
  -0.008190  -0.084326  0.000000
  -0.016696  -0.084375  0.000000
  0.026329  -0.094232  0.000000
  0.017401  -0.093939  0.000000
  0.008754  -0.093692  0.000000
  0.000218  -0.093530  0.000000
  -0.025610  -0.084490  0.000000
  -0.008322  -0.093463  0.000000
  -0.016978  -0.093486  0.000000
  0.026579  -0.103322  0.000000
  0.017652  -0.103065  0.000000
  0.008916  -0.102838  0.000000
  -0.025932  -0.093557  0.000000
  0.000261  -0.102681  0.000000
  -0.008404  -0.102607  0.000000
  -0.017162  -0.102608  0.000000
  0.026722  -0.112378  0.000000
  0.017828  -0.112147  0.000000
  0.009044  -0.111938  0.000000
  -0.026132  -0.102645  0.000000
  0.000306  -0.111791  0.000000
  -0.008445  -0.111715  0.000000
  -0.017269  -0.111701  0.000000
  0.026789  -0.121346  0.000000
  0.017950  -0.121136  0.000000
  -0.026239  -0.111712  0.000000
  0.009142  -0.120957  0.000000
  0.000350  -0.120830  0.000000
  -0.008460  -0.120762  0.000000
  -0.017323  -0.120741  0.000000
  0.026785  -0.130147  0.000000
  -0.026281  -0.120734  0.000000
  0.018024  -0.130001  0.000000
  0.009211  -0.129876  0.000000
  0.000385  -0.129788  0.000000
  -0.008461  -0.129738  0.000000
  -0.017345  -0.129720  0.000000
  -0.026287  -0.129705  0.000000
  0.026875  -0.130436  0.000000
  0.018072  -0.138794  0.000000
  0.009251  -0.138727  0.000000
  0.000406  -0.138683  0.000000
  -0.008459  -0.138658  0.000000
  -0.017351  -0.138649  0.000000
  -0.026281  -0.138634  0.000000
  0.026817  -0.132388  0.000000
  0.018076  -0.147526  0.000000
  0.009249  -0.147535  0.000000
  0.000400  -0.147532  0.000000
  -0.008470  -0.147533  0.000000
  -0.017365  -0.147539  0.000000
  -0.026285  -0.147535  0.000000

CELL_DATA 240
TENSORS stress double
  -20075.281890  -1192.122922  0.000000
  -1192.122922  -2224.752086  0.000000
  0.000000  0.000000  0.000000


  -6938.206492  -3364.358902  0.000000
  -3364.358902  -2310.422762  0.000000
  0.000000  0.000000  0.000000


  -12074.066539  -361.113477  0.000000
  -361.113477  -523.628939  0.000000
  0.000000  0.000000  0.000000


  -9075.908866  -1497.504941  0.000000
  -1497.504941  1454.629173  0.000000
  0.000000  0.000000  0.000000


  -12891.230113  -688.794362  0.000000
  -688.794362  -1023.570316  0.000000
  0.000000  0.000000  0.000000


  -7746.493950  -1906.411968  0.000000
  -1906.411968  924.512864  0.000000
  0.000000  0.000000  0.000000


  -12163.981716  -754.684880  0.000000
  -754.684880  -1036.466191  0.000000
  0.000000  0.000000  0.000000


  -6987.233273  -2070.982818  0.000000
  -2070.982818  997.293543  0.000000
  0.000000  0.000000  0.000000


  -11386.216160  -789.680593  0.000000
  -789.680593  -1036.720765  0.000000
  0.000000  0.000000  0.000000


  -6322.001360  -2134.619157  0.000000
  -2134.619157  971.092381  0.000000
  0.000000  0.000000  0.000000


  -10459.954870  -776.365688  0.000000
  -776.365688  -992.020195  0.000000
  0.000000  0.000000  0.000000


  -5720.284544  -2096.158752  0.000000
  -2096.158752  910.000962  0.000000
  0.000000  0.000000  0.000000


  -9396.988861  -725.518180  0.000000
  -725.518180  -910.273574  0.000000
  0.000000  0.000000  0.000000


  -5135.253144  -1973.991371  0.000000
  -1973.991371  832.962833  0.000000
  0.000000  0.000000  0.000000


  -8226.911711  -653.182687  0.000000
  -653.182687  -803.077368  0.000000
  0.000000  0.000000  0.000000


  -4541.663521  -1790.422953  0.000000
  -1790.422953  747.538956  0.000000
  0.000000  0.000000  0.000000


  -6996.004426  -574.878313  0.000000
  -574.878313  -683.236828  0.000000
  0.000000  0.000000  0.000000


  -3931.870399  -1569.922393  0.000000
  -1569.922393  656.871541  0.000000
  0.000000  0.000000  0.000000


  -5759.591467  -501.709421  0.000000
  -501.709421  -562.209177  0.000000
  0.000000  0.000000  0.000000


  -3312.520292  -1335.869206  0.000000
  -1335.869206  563.055835  0.000000
  0.000000  0.000000  0.000000


  -4571.996970  -438.722288  0.000000
  -438.722288  -448.482620  0.000000
  0.000000  0.000000  0.000000


  -2700.041117  -1106.901069  0.000000
  -1106.901069  468.535064  0.000000
  0.000000  0.000000  0.000000


  -3478.628400  -385.495347  0.000000
  -385.495347  -347.173519  0.000000
  0.000000  0.000000  0.000000


  -2115.515128  -894.697651  0.000000
  -894.697651  376.079195  0.000000
  0.000000  0.000000  0.000000


  -2512.681177  -338.099470  0.000000
  -338.099470  -260.545164  0.000000
  0.000000  0.000000  0.000000


  -1580.094885  -704.144383  0.000000
  -704.144383  288.293525  0.000000
  0.000000  0.000000  0.000000


  -1695.812380  -291.377990  0.000000
  -291.377990  -188.860870  0.000000
  0.000000  0.000000  0.000000


  -1111.898488  -535.362710  0.000000
  -535.362710  207.346677  0.000000
  0.000000  0.000000  0.000000


  -1040.372608  -240.944991  0.000000
  -240.944991  -131.155636  0.000000
  0.000000  0.000000  0.000000


  -724.470710  -386.436163  0.000000
  -386.436163  135.104714  0.000000
  0.000000  0.000000  0.000000


  -550.882283  -184.756866  0.000000
  -184.756866  -85.844331  0.000000
  0.000000  0.000000  0.000000


  -426.017859  -255.907085  0.000000
  -255.907085  73.487700  0.000000
  0.000000  0.000000  0.000000


  -223.501920  -124.211760  0.000000
  -124.211760  -51.224320  0.000000
  0.000000  0.000000  0.000000


  -218.294530  -144.557080  0.000000
  -144.557080  24.752901  0.000000
  0.000000  0.000000  0.000000


  -43.525116  -64.636417  0.000000
  -64.636417  -25.572765  0.000000
  0.000000  0.000000  0.000000


  -94.518930  -56.152783  0.000000
  -56.152783  -8.522242  0.000000
  0.000000  0.000000  0.000000


  19.624707  -16.174704  0.000000
  -16.174704  -7.019554  0.000000
  0.000000  0.000000  0.000000


  -34.921971  1.456106  0.000000
  1.456106  -22.946648  0.000000
  0.000000  0.000000  0.000000


  10.554084  10.554104  0.000000
  10.554104  10.554123  0.000000
  0.000000  0.000000  0.000000


  -18.254913  25.351379  0.000000
  25.351379  -19.781608  0.000000
  0.000000  0.000000  0.000000


  -7142.070289  -2299.903764  0.000000
  -2299.903764  -1723.159834  0.000000
  0.000000  0.000000  0.000000


  -4108.728115  -3153.163039  0.000000
  -3153.163039  -1368.206462  0.000000
  0.000000  0.000000  0.000000


  -10009.687506  -2043.387558  0.000000
  -2043.387558  -885.245202  0.000000
  0.000000  0.000000  0.000000


  -4228.552479  -4078.098688  0.000000
  -4078.098688  -529.310309  0.000000
  0.000000  0.000000  0.000000


  -8314.321579  -1522.821543  0.000000
  -1522.821543  -731.453391  0.000000
  0.000000  0.000000  0.000000


  -4035.458425  -3033.262630  0.000000
  -3033.262630  1090.873558  0.000000
  0.000000  0.000000  0.000000


  -7584.946736  -1429.734050  0.000000
  -1429.734050  -781.803540  0.000000
  0.000000  0.000000  0.000000


  -3555.617508  -2846.433718  0.000000
  -2846.433718  843.273089  0.000000
  0.000000  0.000000  0.000000


  -6921.417286  -1379.636180  0.000000
  -1379.636180  -825.925038  0.000000
  0.000000  0.000000  0.000000


  -3183.151677  -2690.106380  0.000000
  -2690.106380  665.006012  0.000000
  0.000000  0.000000  0.000000


  -6301.819665  -1349.866546  0.000000
  -1349.866546  -844.175453  0.000000
  0.000000  0.000000  0.000000


  -2852.670723  -2553.921598  0.000000
  -2553.921598  510.327045  0.000000
  0.000000  0.000000  0.000000


  -5684.925522  -1322.077217  0.000000
  -1322.077217  -828.456666  0.000000
  0.000000  0.000000  0.000000


  -2540.866319  -2416.219973  0.000000
  -2416.219973  393.769805  0.000000
  0.000000  0.000000  0.000000


  -5047.960821  -1285.173100  0.000000
  -1285.173100  -781.421555  0.000000
  0.000000  0.000000  0.000000


  -2233.711745  -2263.780910  0.000000
  -2263.780910  311.322636  0.000000
  0.000000  0.000000  0.000000


  -4385.860925  -1233.062463  0.000000
  -1233.062463  -711.300814  0.000000
  0.000000  0.000000  0.000000


  -1925.940067  -2090.323508  0.000000
  -2090.323508  252.858645  0.000000
  0.000000  0.000000  0.000000


  -3708.707604  -1163.324633  0.000000
  -1163.324633  -628.554106  0.000000
  0.000000  0.000000  0.000000


  -1618.967557  -1895.569496  0.000000
  -1895.569496  207.482151  0.000000
  0.000000  0.000000  0.000000


  -3036.871839  -1075.938590  0.000000
  -1075.938590  -543.196970  0.000000
  0.000000  0.000000  0.000000


  -1318.689913  -1683.377023  0.000000
  -1683.377023  166.276392  0.000000
  0.000000  0.000000  0.000000


  -2395.039457  -972.021463  0.000000
  -972.021463  -462.981691  0.000000
  0.000000  0.000000  0.000000


  -1033.202593  -1459.511834  0.000000
  -1459.511834  123.702211  0.000000
  0.000000  0.000000  0.000000


  -1806.924256  -852.957418  0.000000
  -852.957418  -392.491155  0.000000
  0.000000  0.000000  0.000000


  -770.852275  -1229.811077  0.000000
  -1229.811077  77.817923  0.000000
  0.000000  0.000000  0.000000


  -1291.841859  -720.266321  0.000000
  -720.266321  -332.788018  0.000000
  0.000000  0.000000  0.000000


  -539.100635  -999.262612  0.000000
  -999.262612  29.704357  0.000000
  0.000000  0.000000  0.000000


  -863.191807  -576.405377  0.000000
  -576.405377  -281.388450  0.000000
  0.000000  0.000000  0.000000


  -344.471724  -772.239232  0.000000
  -772.239232  -17.305706  0.000000
  0.000000  0.000000  0.000000


  -528.016202  -426.389911  0.000000
  -426.389911  -232.815303  0.000000
  0.000000  0.000000  0.000000


  -193.011932  -553.877236  0.000000
  -553.877236  -58.221770  0.000000
  0.000000  0.000000  0.000000


  -286.565058  -279.627308  0.000000
  -279.627308  -180.292941  0.000000
  0.000000  0.000000  0.000000


  -89.852194  -352.200346  0.000000
  -352.200346  -86.913548  0.000000
  0.000000  0.000000  0.000000


  -131.212659  -150.753740  0.000000
  -150.753740  -118.735074  0.000000
  0.000000  0.000000  0.000000


  -36.288097  -179.949219  0.000000
  -179.949219  -96.953886  0.000000
  0.000000  0.000000  0.000000


  -45.087895  -57.753906  0.000000
  -57.753906  -53.481366  0.000000
  0.000000  0.000000  0.000000


  -16.396616  -58.170949  0.000000
  -58.170949  -80.498871  0.000000
  0.000000  0.000000  0.000000


  -3.584536  -11.353611  0.000000
  -11.353611  24.658941  0.000000
  0.000000  0.000000  0.000000


  -15.581572  8.738379  0.000000
  8.738379  -43.652189  0.000000
  0.000000  0.000000  0.000000


  -4022.999829  -1773.336027  0.000000
  -1773.336027  -1233.151548  0.000000
  0.000000  0.000000  0.000000


  67.388273  -3112.826115  0.000000
  -3112.826115  22.440295  0.000000
  0.000000  0.000000  0.000000


  -4531.022029  -2179.612247  0.000000
  -2179.612247  -1107.861500  0.000000
  0.000000  0.000000  0.000000


  81.215937  -3635.395553  0.000000
  -3635.395553  132.470686  0.000000
  0.000000  0.000000  0.000000


  -4699.385596  -2059.078875  0.000000
  -2059.078875  -950.156930  0.000000
  0.000000  0.000000  0.000000


  47.450288  -3601.030374  0.000000
  -3601.030374  415.266836  0.000000
  0.000000  0.000000  0.000000


  -4135.378303  -1846.205533  0.000000
  -1846.205533  -894.974252  0.000000
  0.000000  0.000000  0.000000


  70.759711  -3280.554782  0.000000
  -3280.554782  637.135690  0.000000
  0.000000  0.000000  0.000000


  -3701.982861  -1753.516560  0.000000
  -1753.516560  -892.623781  0.000000
  0.000000  0.000000  0.000000


  119.488548  -3063.421558  0.000000
  -3063.421558  523.413231  0.000000
  0.000000  0.000000  0.000000


  -3318.737962  -1702.807360  0.000000
  -1702.807360  -889.820537  0.000000
  0.000000  0.000000  0.000000


  151.532311  -2891.422351  0.000000
  -2891.422351  391.617296  0.000000
  0.000000  0.000000  0.000000


  -2962.189290  -1668.018531  0.000000
  -1668.018531  -872.785960  0.000000
  0.000000  0.000000  0.000000


  166.801271  -2737.047393  0.000000
  -2737.047393  271.385538  0.000000
  0.000000  0.000000  0.000000


  -2616.068813  -1630.014536  0.000000
  -1630.014536  -838.552472  0.000000
  0.000000  0.000000  0.000000


  168.704851  -2579.054730  0.000000
  -2579.054730  170.046754  0.000000
  0.000000  0.000000  0.000000


  -2272.612781  -1576.005946  0.000000
  -1576.005946  -789.784588  0.000000
  0.000000  0.000000  0.000000


  161.437403  -2404.196893  0.000000
  -2404.196893  86.495414  0.000000
  0.000000  0.000000  0.000000


  -1931.412456  -1498.772694  0.000000
  -1498.772694  -732.041382  0.000000
  0.000000  0.000000  0.000000


  148.970395  -2206.560724  0.000000
  -2206.560724  16.711917  0.000000
  0.000000  0.000000  0.000000


  -1597.458510  -1395.648176  0.000000
  -1395.648176  -671.698287  0.000000
  0.000000  0.000000  0.000000


  134.664394  -1986.021084  0.000000
  -1986.021084  -43.941292  0.000000
  0.000000  0.000000  0.000000


  -1278.806816  -1267.194075  0.000000
  -1267.194075  -614.311645  0.000000
  0.000000  0.000000  0.000000


  121.191838  -1746.258267  0.000000
  -1746.258267  -99.311660  0.000000
  0.000000  0.000000  0.000000


  -984.290425  -1115.853995  0.000000
  -1115.853995  -563.346625  0.000000
  0.000000  0.000000  0.000000


  110.637563  -1492.769058  0.000000
  -1492.769058  -151.578510  0.000000
  0.000000  0.000000  0.000000


  -721.759580  -945.010238  0.000000
  -945.010238  -518.889743  0.000000
  0.000000  0.000000  0.000000


  104.465511  -1231.277392  0.000000
  -1231.277392  -200.769578  0.000000
  0.000000  0.000000  0.000000


  -497.202328  -758.944631  0.000000
  -758.944631  -475.966462  0.000000
  0.000000  0.000000  0.000000


  102.721463  -966.964452  0.000000
  -966.964452  -244.334598  0.000000
  0.000000  0.000000  0.000000


  -314.755020  -564.409971  0.000000
  -564.409971  -423.812531  0.000000
  0.000000  0.000000  0.000000


  101.482256  -705.358123  0.000000
  -705.358123  -276.608350  0.000000
  0.000000  0.000000  0.000000


  -176.786498  -373.450507  0.000000
  -373.450507  -347.974733  0.000000
  0.000000  0.000000  0.000000


  91.254209  -455.349224  0.000000
  -455.349224  -288.612398  0.000000
  0.000000  0.000000  0.000000


  -83.003324  -205.797899  0.000000
  -205.797899  -237.239390  0.000000
  0.000000  0.000000  0.000000


  59.698869  -233.489538  0.000000
  -233.489538  -269.218016  0.000000
  0.000000  0.000000  0.000000


  -27.990099  -87.311810  0.000000
  -87.311810  -115.313632  0.000000
  0.000000  0.000000  0.000000


  21.941307  -78.040385  0.000000
  -78.040385  -202.280996  0.000000
  0.000000  0.000000  0.000000


  1.465284  -25.492368  0.000000
  -25.492368  7.899175  0.000000
  0.000000  0.000000  0.000000


  -13.950686  8.015032  0.000000
  8.015032  -110.629817  0.000000
  0.000000  0.000000  0.000000


  -195.032284  -1643.622534  0.000000
  -1643.622534  -866.678980  0.000000
  0.000000  0.000000  0.000000


  4510.333720  -3415.582117  0.000000
  -3415.582117  1501.941129  0.000000
  0.000000  0.000000  0.000000


  -366.183997  -2012.598550  0.000000
  -2012.598550  -1086.665140  0.000000
  0.000000  0.000000  0.000000


  4320.008318  -3620.267722  0.000000
  -3620.267722  666.349533  0.000000
  0.000000  0.000000  0.000000


  -466.267712  -2050.576708  0.000000
  -2050.576708  -1059.951950  0.000000
  0.000000  0.000000  0.000000


  4025.558904  -3535.629175  0.000000
  -3535.629175  390.640280  0.000000
  0.000000  0.000000  0.000000


  -474.519857  -1946.866278  0.000000
  -1946.866278  -1002.970012  0.000000
  0.000000  0.000000  0.000000


  3730.208620  -3336.112737  0.000000
  -3336.112737  341.224433  0.000000
  0.000000  0.000000  0.000000


  -374.833853  -1837.596730  0.000000
  -1837.596730  -964.852094  0.000000
  0.000000  0.000000  0.000000


  3452.682703  -3112.926355  0.000000
  -3112.926355  305.611545  0.000000
  0.000000  0.000000  0.000000


  -291.711897  -1765.100519  0.000000
  -1765.100519  -942.899610  0.000000
  0.000000  0.000000  0.000000


  3178.037317  -2923.627383  0.000000
  -2923.627383  218.601632  0.000000
  0.000000  0.000000  0.000000


  -230.237658  -1712.055283  0.000000
  -1712.055283  -923.903205  0.000000
  0.000000  0.000000  0.000000


  2888.918256  -2752.577356  0.000000
  -2752.577356  116.428874  0.000000
  0.000000  0.000000  0.000000


  -187.003554  -1661.116135  0.000000
  -1661.116135  -900.825047  0.000000
  0.000000  0.000000  0.000000


  2579.460478  -2581.486841  0.000000
  -2581.486841  11.874531  0.000000
  0.000000  0.000000  0.000000


  -156.742322  -1599.043127  0.000000
  -1599.043127  -871.397825  0.000000
  0.000000  0.000000  0.000000


  2252.419032  -2397.598037  0.000000
  -2397.598037  -88.350218  0.000000
  0.000000  0.000000  0.000000


  -134.541282  -1517.596260  0.000000
  -1517.596260  -836.714489  0.000000
  0.000000  0.000000  0.000000


  1916.499023  -2194.740831  0.000000
  -2194.740831  -180.877360  0.000000
  0.000000  0.000000  0.000000


  -116.469238  -1413.051293  0.000000
  -1413.051293  -799.699359  0.000000
  0.000000  0.000000  0.000000


  1583.611788  -1972.229444  0.000000
  -1972.229444  -264.472652  0.000000
  0.000000  0.000000  0.000000


  -99.669180  -1285.156115  0.000000
  -1285.156115  -763.704936  0.000000
  0.000000  0.000000  0.000000


  1266.496776  -1733.127677  0.000000
  -1733.127677  -339.114339  0.000000
  0.000000  0.000000  0.000000


  -82.139576  -1135.862144  0.000000
  -1135.862144  -731.228320  0.000000
  0.000000  0.000000  0.000000


  977.045446  -1482.401832  0.000000
  -1482.401832  -405.133864  0.000000
  0.000000  0.000000  0.000000


  -62.409845  -968.079931  0.000000
  -968.079931  -702.321239  0.000000
  0.000000  0.000000  0.000000


  725.353169  -1225.183234  0.000000
  -1225.183234  -462.327224  0.000000
  0.000000  0.000000  0.000000


  -39.503302  -784.746407  0.000000
  -784.746407  -671.649423  0.000000
  0.000000  0.000000  0.000000


  519.045539  -965.236881  0.000000
  -965.236881  -508.696611  0.000000
  0.000000  0.000000  0.000000


  -13.793620  -589.154253  0.000000
  -589.154253  -622.874366  0.000000
  0.000000  0.000000  0.000000


  361.103130  -704.107390  0.000000
  -704.107390  -538.242820  0.000000
  0.000000  0.000000  0.000000


  10.891973  -390.173622  0.000000
  -390.173622  -529.973555  0.000000
  0.000000  0.000000  0.000000


  239.134736  -445.097578  0.000000
  -445.097578  -538.631540  0.000000
  0.000000  0.000000  0.000000


  27.566067  -208.247654  0.000000
  -208.247654  -365.721993  0.000000
  0.000000  0.000000  0.000000


  127.602486  -201.903124  0.000000
  -201.903124  -491.073594  0.000000
  0.000000  0.000000  0.000000


  29.980669  -79.812117  0.000000
  -79.812117  -178.138364  0.000000
  0.000000  0.000000  0.000000


  51.497753  -40.260150  0.000000
  -40.260150  -357.719260  0.000000
  0.000000  0.000000  0.000000


  22.418542  -17.037389  0.000000
  -17.037389  -1.149615  0.000000
  0.000000  0.000000  0.000000


  -26.031068  44.011197  0.000000
  44.011197  -196.770183  0.000000
  0.000000  0.000000  0.000000


  3787.576570  -1645.951174  0.000000
  -1645.951174  -715.230369  0.000000
  0.000000  0.000000  0.000000


  9828.033975  -4157.529889  0.000000
  -4157.529889  3272.735314  0.000000
  0.000000  0.000000  0.000000


  3692.036824  -1797.781274  0.000000
  -1797.781274  -1102.680664  0.000000
  0.000000  0.000000  0.000000


  8499.618442  -3527.661561  0.000000
  -3527.661561  981.321129  0.000000
  0.000000  0.000000  0.000000


  3506.582980  -1778.196444  0.000000
  -1778.196444  -1137.066814  0.000000
  0.000000  0.000000  0.000000


  7895.232658  -3247.081788  0.000000
  -3247.081788  311.429494  0.000000
  0.000000  0.000000  0.000000


  3251.451580  -1697.301282  0.000000
  -1697.301282  -1094.479045  0.000000
  0.000000  0.000000  0.000000


  7323.083582  -3030.005757  0.000000
  -3030.005757  130.363324  0.000000
  0.000000  0.000000  0.000000


  3004.526278  -1601.871601  0.000000
  -1601.871601  -1047.328708  0.000000
  0.000000  0.000000  0.000000


  6778.833594  -2831.863196  0.000000
  -2831.863196  74.723623  0.000000
  0.000000  0.000000  0.000000


  2769.253102  -1516.762054  0.000000
  -1516.762054  -1014.808379  0.000000
  0.000000  0.000000  0.000000


  6230.340955  -2644.873517  0.000000
  -2644.873517  23.092176  0.000000
  0.000000  0.000000  0.000000


  2520.998835  -1443.795061  0.000000
  -1443.795061  -992.715695  0.000000
  0.000000  0.000000  0.000000


  5648.338813  -2461.106650  0.000000
  -2461.106650  -58.006069  0.000000
  0.000000  0.000000  0.000000


  2252.534557  -1374.759273  0.000000
  -1374.759273  -973.425016  0.000000
  0.000000  0.000000  0.000000


  5021.733822  -2271.194149  0.000000
  -2271.194149  -160.721177  0.000000
  0.000000  0.000000  0.000000


  1965.725222  -1302.267765  0.000000
  -1302.267765  -952.530354  0.000000
  0.000000  0.000000  0.000000


  4356.971975  -2070.563779  0.000000
  -2070.563779  -272.834438  0.000000
  0.000000  0.000000  0.000000


  1668.366711  -1221.333471  0.000000
  -1221.333471  -928.994824  0.000000
  0.000000  0.000000  0.000000


  3672.997059  -1859.124724  0.000000
  -1859.124724  -384.009695  0.000000
  0.000000  0.000000  0.000000


  1371.517096  -1129.257241  0.000000
  -1129.257241  -903.964953  0.000000
  0.000000  0.000000  0.000000


  2995.041541  -1639.638191  0.000000
  -1639.638191  -487.191859  0.000000
  0.000000  0.000000  0.000000


  1087.220780  -1025.183930  0.000000
  -1025.183930  -879.509958  0.000000
  0.000000  0.000000  0.000000


  2349.146755  -1416.190009  0.000000
  -1416.190009  -578.414908  0.000000
  0.000000  0.000000  0.000000


  826.869422  -909.558613  0.000000
  -909.558613  -857.556747  0.000000
  0.000000  0.000000  0.000000


  1758.367159  -1193.010303  0.000000
  -1193.010303  -656.031865  0.000000
  0.000000  0.000000  0.000000


  600.308790  -783.396620  0.000000
  -783.396620  -838.752367  0.000000
  0.000000  0.000000  0.000000


  1240.987292  -973.477570  0.000000
  -973.477570  -719.665291  0.000000
  0.000000  0.000000  0.000000


  415.466757  -647.116393  0.000000
  -647.116393  -820.253348  0.000000
  0.000000  0.000000  0.000000


  810.659894  -758.888559  0.000000
  -758.888559  -768.700406  0.000000
  0.000000  0.000000  0.000000


  277.744558  -498.645679  0.000000
  -498.645679  -788.806851  0.000000
  0.000000  0.000000  0.000000


  478.085654  -546.126178  0.000000
  -546.126178  -799.376999  0.000000
  0.000000  0.000000  0.000000


  187.175366  -332.826601  0.000000
  -332.826601  -694.756859  0.000000
  0.000000  0.000000  0.000000


  251.148906  -323.097741  0.000000
  -323.097741  -797.617441  0.000000
  0.000000  0.000000  0.000000


  129.767249  -168.132290  0.000000
  -168.132290  -484.593261  0.000000
  0.000000  0.000000  0.000000


  68.458719  -90.339325  0.000000
  -90.339325  -734.229857  0.000000
  0.000000  0.000000  0.000000


  89.608188  -49.261919  0.000000
  -49.261919  -243.270545  0.000000
  0.000000  0.000000  0.000000


  25.414444  35.842874  0.000000
  35.842874  -519.317766  0.000000
  0.000000  0.000000  0.000000


  58.962051  15.886313  0.000000
  15.886313  58.756024  0.000000
  0.000000  0.000000  0.000000


  -24.259825  121.749187  0.000000
  121.749187  -281.280844  0.000000
  0.000000  0.000000  0.000000


  8300.971276  -1465.620392  0.000000
  -1465.620392  -843.461883  0.000000
  0.000000  0.000000  0.000000


  25772.489972  -6860.558174  0.000000
  -6860.558174  8582.239161  0.000000
  0.000000  0.000000  0.000000


  7772.211847  -1437.232257  0.000000
  -1437.232257  -1564.032936  0.000000
  0.000000  0.000000  0.000000


  13053.347449  -2800.673156  0.000000
  -2800.673156  613.906217  0.000000
  0.000000  0.000000  0.000000


  7295.367614  -1383.275222  0.000000
  -1383.275222  -1528.308717  0.000000
  0.000000  0.000000  0.000000


  13444.425542  -2759.237729  0.000000
  -2759.237729  487.487001  0.000000
  0.000000  0.000000  0.000000


  6790.942339  -1305.602152  0.000000
  -1305.602152  -1454.391068  0.000000
  0.000000  0.000000  0.000000


  12549.363851  -2618.905708  0.000000
  -2618.905708  320.176536  0.000000
  0.000000  0.000000  0.000000


  6293.134040  -1188.941252  0.000000
  -1188.941252  -1359.540095  0.000000
  0.000000  0.000000  0.000000


  11544.100584  -2439.829830  0.000000
  -2439.829830  203.916914  0.000000
  0.000000  0.000000  0.000000


  5793.097064  -1052.004340  0.000000
  -1052.004340  -1269.092090  0.000000
  0.000000  0.000000  0.000000


  10448.953492  -2215.688309  0.000000
  -2215.688309  77.508517  0.000000
  0.000000  0.000000  0.000000


  5267.243531  -913.785430  0.000000
  -913.785430  -1189.152845  0.000000
  0.000000  0.000000  0.000000


  9271.954851  -1957.701163  0.000000
  -1957.701163  -76.933376  0.000000
  0.000000  0.000000  0.000000


  4700.548514  -787.724836  0.000000
  -787.724836  -1119.442000  0.000000
  0.000000  0.000000  0.000000


  8042.190161  -1687.549392  0.000000
  -1687.549392  -246.353121  0.000000
  0.000000  0.000000  0.000000


  4095.080932  -680.564704  0.000000
  -680.564704  -1058.951678  0.000000
  0.000000  0.000000  0.000000


  6796.369026  -1423.868378  0.000000
  -1423.868378  -412.797864  0.000000
  0.000000  0.000000  0.000000


  3466.338157  -593.540871  0.000000
  -593.540871  -1007.258676  0.000000
  0.000000  0.000000  0.000000


  5574.061626  -1179.030930  0.000000
  -1179.030930  -563.435467  0.000000
  0.000000  0.000000  0.000000


  2837.377081  -523.984113  0.000000
  -523.984113  -964.286805  0.000000
  0.000000  0.000000  0.000000


  4412.774522  -959.334942  0.000000
  -959.334942  -691.738034  0.000000
  0.000000  0.000000  0.000000


  2233.217144  -467.213567  0.000000
  -467.213567  -929.904640  0.000000
  0.000000  0.000000  0.000000


  3344.194278  -766.441303  0.000000
  -766.441303  -795.997687  0.000000
  0.000000  0.000000  0.000000


  1676.744685  -418.246821  0.000000
  -418.246821  -903.676692  0.000000
  0.000000  0.000000  0.000000


  2391.978297  -599.036471  0.000000
  -599.036471  -877.489043  0.000000
  0.000000  0.000000  0.000000


  1186.564917  -372.853716  0.000000
  -372.853716  -884.740122  0.000000
  0.000000  0.000000  0.000000


  1571.268474  -454.155474  0.000000
  -454.155474  -938.940269  0.000000
  0.000000  0.000000  0.000000


  776.659732  -327.440739  0.000000
  -327.440739  -871.725212  0.000000
  0.000000  0.000000  0.000000


  890.173557  -327.714158  0.000000
  -327.714158  -983.264335  0.000000
  0.000000  0.000000  0.000000


  457.252209  -276.543564  0.000000
  -276.543564  -862.358331  0.000000
  0.000000  0.000000  0.000000


  354.456573  -213.416805  0.000000
  -213.416805  -1011.914815  0.000000
  0.000000  0.000000  0.000000


  235.219744  -203.563847  0.000000
  -203.563847  -845.556091  0.000000
  0.000000  0.000000  0.000000


  -18.313526  -96.394848  0.000000
  -96.394848  -1020.151886  0.000000
  0.000000  0.000000  0.000000


  106.863639  -53.818908  0.000000
  -53.818908  -618.912071  0.000000
  0.000000  0.000000  0.000000


  -130.813876  92.248718  0.000000
  92.248718  -966.606065  0.000000
  0.000000  0.000000  0.000000


  -7.876852  62.496150  0.000000
  62.496150  -619.280882  0.000000
  0.000000  0.000000  0.000000


  -168.052994  483.112815  0.000000
  483.112815  -709.055622  0.000000
  0.000000  0.000000  0.000000


  -42.433758  68.291379  0.000000
  68.291379  -335.285585  0.000000
  0.000000  0.000000  0.000000


  -225.133828  162.742027  0.000000
  162.742027  -56.304044  0.000000
  0.000000  0.000000  0.000000


SCALARS vonMisesStress double
LOOKUP_TABLE default
  74831.601883

  39151.170110

  88801.229430

  45351.899083

  9921.706941

  23926.349914

  62883.183959

  87154.516723

  44444.595458

  93662.213190

  117957.879694

  105663.199373

  43282.001651

  168121.389614

  90450.880435

  103960.818026

  57923.929568

  123147.301419

  16990.409412

  17182.685680

  145614.868206

  68745.675000

  289925.718761

  192557.066916

  335135.486829

  306364.493532

  154118.333564

  325065.123511

  565961.069572

  256385.434300

  206121.773252

  564758.719863

  352088.335543

  317243.072113

  368561.087005

  411261.451154

  418139.884749

  614101.595202

  468838.036793

  485622.734461

  5183.609063

  32437.575274

  61241.528443

  21839.238516

  63100.879019

  104342.885760

  98991.001944

  87099.449402

  76541.152280

  35327.020399

  212871.063929

  94211.829788

  89853.073713

  178067.884198

  89529.712629

  53456.245669

  198913.502233

  186416.920752

  73303.794777

  253338.394262

  65951.416087

  68541.774995

  294369.687165

  201214.627247

  224054.483072

  258755.266321

  254780.323320

  306743.539211

  271946.743827

  244003.024517

  550493.111964

  303904.150955

  491680.913284

  611504.573043

  337983.376753

  465178.761872

  699493.732068

  455425.599682

  533631.824628

  684237.285682

  21742.038078

  52703.315524

  52401.550347

  26527.979286

  86367.670287

  41012.760651

  129257.315667

  60110.044220

  39210.447211

  98843.839407

  145314.870073

  53673.608444

  68334.573735

  151265.031557

  137532.644500

  66039.188062

  294064.105323

  249360.229955

  190202.191556

  323890.130380

  223693.011351

  172450.360059

  60278.443334

  211250.895573

  284114.964762

  227110.167519

  316802.981847

  284773.659258

  234879.583637

  318585.109160

  312522.068266

  239264.525642

  679545.760241

  353056.254138

  286974.893288

  640305.014838

  460193.899013

  329418.464806

  636040.162509

  394394.120780

  55825.031016

  34239.040380

  10239.550701

  67023.220412

  157.198934

  39215.107883

  32314.500434

  21549.504005

  26825.505247

  38316.548399

  135161.124368

  59105.403669

  61788.093005

  123802.509176

  119047.538454

  47160.632066

  271955.088409

  97951.674034

  246167.880462

  188718.076661

  206804.309214

  196795.940939

  213961.038223

  255532.166376

  250058.720714

  235537.621898

  333969.827416

  325332.847907

  286551.183222

  310643.171804

  92230.292411

  313706.158739

  359441.217814

  359916.199993

  607703.532824

  378963.487856

  437338.994772

  592286.323881

  402052.939735

  405624.442752

  59188.985279

  24488.867207

  32856.408080

  63118.300384

  33297.084031

  23349.685733

  25451.681719

  33607.297901

  46420.652806

  24607.667243

  71348.829483

  75016.793422

  63719.309581

  46230.871481

  84170.270671

  112849.138629

  79416.574816

  118753.732839

  47877.550644

  80009.462735

  232861.830472

  71420.077170

  89262.220674

  203553.342178

  247729.215598

  187047.531288

  382094.306138

  226586.933876

  213825.352382

  431098.197415

  361332.703120

  309758.267854

  350904.916166

  304014.847651

  385401.954450

  324146.364232

  579789.490208

  396434.092985

  301579.848878

  581819.867019

  30340.680176

  0.000000

  23807.473419

  16132.823394

  9891.761779

  11137.042032

  64745.160250

  57275.882969

  20727.995571

  140007.942006

  86999.268521

  79482.366575

  32961.920203

  75023.855806

  148622.184988

  15865.905732

  67221.572341

  97829.333643

  64052.072849

  39679.168285

  72223.639396

  67137.255564

  219963.801451

  80226.809834

  187840.347667

  191205.589395

  225350.056169

  204399.500208

  492954.263317

  275573.013642

  355706.210143

  433872.286831

  298888.213188

  319731.813114

  330653.193286

  362453.983065

  352269.661984

  9657343.299757

  328427.283123

  1995798.685710
