# vtk DataFile Version 2.0
geometrically linear steady-state plane stress analysis
ASCII

DATASET UNSTRUCTURED_GRID
POINTS 147 double
  0.000000  0.300000  0.000000
  0.000000  0.250000  0.000000
  0.056897  0.294969  0.000000
  0.053993  0.246510  0.000000
  0.000000  0.200000  0.000000
  0.113205  0.289351  0.000000
  0.108017  0.241042  0.000000
  0.051882  0.197245  0.000000
  0.103837  0.192009  0.000000
  0.000000  0.150000  0.000000
  0.168815  0.282197  0.000000
  0.161754  0.233806  0.000000
  0.050041  0.147504  0.000000
  0.100075  0.142370  0.000000
  0.155692  0.184787  0.000000
  0.223791  0.273492  0.000000
  0.000000  0.100000  0.000000
  0.215117  0.224962  0.000000
  0.048215  0.097395  0.000000
  0.150082  0.135155  0.000000
  0.207378  0.175881  0.000000
  0.096296  0.092159  0.000000
  0.144437  0.084909  0.000000
  0.278179  0.263366  0.000000
  0.000000  0.050000  0.000000
  0.200083  0.126231  0.000000
  0.268098  0.214688  0.000000
  0.046107  0.046809  0.000000
  0.258884  0.165527  0.000000
  0.091993  0.041267  0.000000
  0.192764  0.076007  0.000000
  0.250092  0.115856  0.000000
  0.138279  0.034038  0.000000
  0.000000  0.000000  0.000000
  0.332020  0.251985  0.000000
  0.042682  -0.004864  0.000000
  0.320717  0.203164  0.000000
  0.086571  -0.010347  0.000000
  0.310214  0.153923  0.000000
  0.184975  0.025225  0.000000
  0.241290  0.065669  0.000000
  0.131134  -0.017423  0.000000
  0.300110  0.104231  0.000000
  0.385353  0.239518  0.000000
  0.372996  0.190564  0.000000
  0.232057  0.014984  0.000000
  0.176283  -0.026078  0.000000
  0.290003  0.054081  0.000000
  0.361380  0.141246  0.000000
  0.350134  0.091533  0.000000
  0.221986  -0.036165  0.000000
  0.279502  0.003489  0.000000
  0.438215  0.226126  0.000000
  0.338891  0.041417  0.000000
  0.424962  0.177049  0.000000
  0.412391  0.127659  0.000000
  0.268218  -0.047515  0.000000
  0.400163  0.077926  0.000000
  0.327283  -0.009090  0.000000
  0.387938  0.027839  0.000000
  0.490643  0.211959  0.000000
  0.476638  0.162769  0.000000
  0.314951  -0.059957  0.000000
  0.463258  0.113312  0.000000
  0.375379  -0.022589  0.000000
  0.450193  0.063559  0.000000
  0.437131  0.013499  0.000000
  0.542674  0.197153  0.000000
  0.362150  -0.073328  0.000000
  0.528051  0.147860  0.000000
  0.513994  0.098343  0.000000
  0.423765  -0.036857  0.000000
  0.500224  0.048572  0.000000
  0.486459  -0.001464  0.000000
  0.409784  -0.087479  0.000000
  0.594345  0.181836  0.000000
  0.579222  0.132450  0.000000
  0.472416  -0.051755  0.000000
  0.564611  0.082878  0.000000
  0.550257  0.033090  0.000000
  0.457815  -0.102269  0.000000
  0.535907  -0.016924  0.000000
  0.645690  0.166121  0.000000
  0.630178  0.116652  0.000000
  0.521309  -0.067155  0.000000
  0.615119  0.067031  0.000000
  0.600290  0.017229  0.000000
  0.506209  -0.117572  0.000000
  0.585466  -0.032766  0.000000
  0.696748  0.150112  0.000000
  0.570420  -0.082943  0.000000
  0.680941  0.100570  0.000000
  0.665532  0.050906  0.000000
  0.650324  0.001090  0.000000
  0.554929  -0.133273  0.000000
  0.635121  -0.048888  0.000000
  0.619725  -0.099017  0.000000
  0.747553  0.133897  0.000000
  0.731536  0.084292  0.000000
  0.715861  0.034591  0.000000
  0.700359  -0.015236  0.000000
  0.603939  -0.149269  0.000000
  0.684862  -0.065198  0.000000
  0.669199  -0.115286  0.000000
  0.798142  0.117556  0.000000
  0.781987  0.067898  0.000000
  0.766118  0.018166  0.000000
  0.653203  -0.165470  0.000000
  0.750395  -0.031670  0.000000
  0.734676  -0.081619  0.000000
  0.718819  -0.131671  0.000000
  0.848552  0.101154  0.000000
  0.832318  0.051453  0.000000
  0.816315  0.001696  0.000000
  0.702685  -0.181798  0.000000
  0.800431  -0.048147  0.000000
  0.784551  -0.098085  0.000000
  0.768560  -0.148107  0.000000
  0.898819  0.084747  0.000000
  0.882553  0.035013  0.000000
  0.752348  -0.198185  0.000000
  0.866463  -0.014765  0.000000
  0.850468  -0.064614  0.000000
  0.834477  -0.114541  0.000000
  0.818400  -0.164538  0.000000
  0.948982  0.068374  0.000000
  0.802155  -0.214579  0.000000
  0.932714  0.018619  0.000000
  0.916573  -0.031174  0.000000
  0.900506  -0.081028  0.000000
  0.884443  -0.130947  0.000000
  0.868315  -0.180925  0.000000
  0.852068  -0.230936  0.000000
  0.999080  0.052062  0.000000
  0.982825  0.002296  0.000000
  0.966655  -0.047504  0.000000
  0.950544  -0.097358  0.000000
  0.934438  -0.147272  0.000000
  0.918282  -0.197239  0.000000
  0.902047  -0.247234  0.000000
  1.049156  0.035814  0.000000
  1.032906  -0.013945  0.000000
  1.016722  -0.063730  0.000000
  1.000586  -0.113576  0.000000
  0.984452  -0.163496  0.000000
  0.968277  -0.213475  0.000000
  0.952045  -0.263473  0.000000

CELLS  240  960
  3  35  27  33
  3  27  24  33
  3  37  29  35
  3  29  27  35
  3  41  32  37
  3  32  29  37
  3  46  39  41
  3  39  32  41
  3  50  45  46
  3  45  39  46
  3  56  51  50
  3  51  45  50
  3  62  58  56
  3  58  51  56
  3  68  64  62
  3  64  58  62
  3  74  71  68
  3  71  64  68
  3  80  77  74
  3  77  71  74
  3  87  84  80
  3  84  77  80
  3  94  90  87
  3  90  84  87
  3  101  96  94
  3  96  90  94
  3  107  103  101
  3  103  96  101
  3  114  110  107
  3  110  103  107
  3  120  117  114
  3  117  110  114
  3  126  124  120
  3  124  117  120
  3  132  131  126
  3  131  124  126
  3  139  138  132
  3  138  131  132
  3  146  145  139
  3  145  138  139
  3  27  18  24
  3  18  16  24
  3  29  21  27
  3  21  18  27
  3  32  22  29
  3  22  21  29
  3  39  30  32
  3  30  22  32
  3  45  40  39
  3  40  30  39
  3  51  47  45
  3  47  40  45
  3  58  53  51
  3  53  47  51
  3  64  59  58
  3  59  53  58
  3  71  66  64
  3  66  59  64
  3  77  73  71
  3  73  66  71
  3  84  81  77
  3  81  73  77
  3  90  88  84
  3  88  81  84
  3  96  95  90
  3  95  88  90
  3  103  102  96
  3  102  95  96
  3  110  109  103
  3  109  102  103
  3  117  116  110
  3  116  109  110
  3  124  123  117
  3  123  116  117
  3  131  130  124
  3  130  123  124
  3  138  137  131
  3  137  130  131
  3  145  144  138
  3  144  137  138
  3  18  12  16
  3  12  9  16
  3  21  13  18
  3  13  12  18
  3  22  19  21
  3  19  13  21
  3  30  25  22
  3  25  19  22
  3  40  31  30
  3  31  25  30
  3  47  42  40
  3  42  31  40
  3  53  49  47
  3  49  42  47
  3  59  57  53
  3  57  49  53
  3  66  65  59
  3  65  57  59
  3  73  72  66
  3  72  65  66
  3  81  79  73
  3  79  72  73
  3  88  86  81
  3  86  79  81
  3  95  93  88
  3  93  86  88
  3  102  100  95
  3  100  93  95
  3  109  108  102
  3  108  100  102
  3  116  115  109
  3  115  108  109
  3  123  122  116
  3  122  115  116
  3  130  129  123
  3  129  122  123
  3  137  136  130
  3  136  129  130
  3  144  143  137
  3  143  136  137
  3  12  7  9
  3  7  4  9
  3  13  8  12
  3  8  7  12
  3  19  14  13
  3  14  8  13
  3  25  20  19
  3  20  14  19
  3  31  28  25
  3  28  20  25
  3  42  38  31
  3  38  28  31
  3  49  48  42
  3  48  38  42
  3  57  55  49
  3  55  48  49
  3  65  63  57
  3  63  55  57
  3  72  70  65
  3  70  63  65
  3  79  78  72
  3  78  70  72
  3  86  85  79
  3  85  78  79
  3  93  92  86
  3  92  85  86
  3  100  99  93
  3  99  92  93
  3  108  106  100
  3  106  99  100
  3  115  113  108
  3  113  106  108
  3  122  121  115
  3  121  113  115
  3  129  128  122
  3  128  121  122
  3  136  135  129
  3  135  128  129
  3  143  142  136
  3  142  135  136
  3  7  3  4
  3  3  1  4
  3  8  6  7
  3  6  3  7
  3  14  11  8
  3  11  6  8
  3  20  17  14
  3  17  11  14
  3  28  26  20
  3  26  17  20
  3  38  36  28
  3  36  26  28
  3  48  44  38
  3  44  36  38
  3  55  54  48
  3  54  44  48
  3  63  61  55
  3  61  54  55
  3  70  69  63
  3  69  61  63
  3  78  76  70
  3  76  69  70
  3  85  83  78
  3  83  76  78
  3  92  91  85
  3  91  83  85
  3  99  98  92
  3  98  91  92
  3  106  105  99
  3  105  98  99
  3  113  112  106
  3  112  105  106
  3  121  119  113
  3  119  112  113
  3  128  127  121
  3  127  119  121
  3  135  134  128
  3  134  127  128
  3  142  141  135
  3  141  134  135
  3  3  2  1
  3  2  0  1
  3  6  5  3
  3  5  2  3
  3  11  10  6
  3  10  5  6
  3  17  15  11
  3  15  10  11
  3  26  23  17
  3  23  15  17
  3  36  34  26
  3  34  23  26
  3  44  43  36
  3  43  34  36
  3  54  52  44
  3  52  43  44
  3  61  60  54
  3  60  52  54
  3  69  67  61
  3  67  60  61
  3  76  75  69
  3  75  67  69
  3  83  82  76
  3  82  75  76
  3  91  89  83
  3  89  82  83
  3  98  97  91
  3  97  89  91
  3  105  104  98
  3  104  97  98
  3  112  111  105
  3  111  104  105
  3  119  118  112
  3  118  111  112
  3  127  125  119
  3  125  118  119
  3  134  133  127
  3  133  125  127
  3  141  140  134
  3  140  133  134

CELL_TYPES 240
5
5
5
5
5
5
5
5
5
5
5
5
5
5
5
5
5
5
5
5
5
5
5
5
5
5
5
5
5
5
5
5
5
5
5
5
5
5
5
5
5
5
5
5
5
5
5
5
5
5
5
5
5
5
5
5
5
5
5
5
5
5
5
5
5
5
5
5
5
5
5
5
5
5
5
5
5
5
5
5
5
5
5
5
5
5
5
5
5
5
5
5
5
5
5
5
5
5
5
5
5
5
5
5
5
5
5
5
5
5
5
5
5
5
5
5
5
5
5
5
5
5
5
5
5
5
5
5
5
5
5
5
5
5
5
5
5
5
5
5
5
5
5
5
5
5
5
5
5
5
5
5
5
5
5
5
5
5
5
5
5
5
5
5
5
5
5
5
5
5
5
5
5
5
5
5
5
5
5
5
5
5
5
5
5
5
5
5
5
5
5
5
5
5
5
5
5
5
5
5
5
5
5
5
5
5
5
5
5
5
5
5
5
5
5
5
5
5
5
5
5
5
5
5
5
5
5
5
5
5
5
5
5
5
5
5
5
5
5
5

CELL_DATA 240
TENSORS strain double
  -0.146353  -0.014396  0.000000
  -0.014396  0.033472  0.000000
  0.000000  0.000000  0.000000

  -0.077860  -0.031906  0.000000
  -0.031906  0.000000  0.000000
  0.000000  0.000000  0.000000

  -0.122225  -0.000615  0.000000
  -0.000615  0.032281  0.000000
  0.000000  0.000000  0.000000

  -0.082281  -0.021183  0.000000
  -0.021183  0.033472  0.000000
  0.000000  0.000000  0.000000

  -0.108741  0.000696  0.000000
  0.000696  0.029213  0.000000
  0.000000  0.000000  0.000000

  -0.074278  -0.018070  0.000000
  -0.018070  0.032281  0.000000
  0.000000  0.000000  0.000000

  -0.097029  0.000378  0.000000
  0.000378  0.026052  0.000000
  0.000000  0.000000  0.000000

  -0.066080  -0.016677  0.000000
  -0.016677  0.029213  0.000000
  0.000000  0.000000  0.000000

  -0.085932  -0.000163  0.000000
  -0.000163  0.022987  0.000000
  0.000000  0.000000  0.000000

  -0.058353  -0.015485  0.000000
  -0.015485  0.026052  0.000000
  0.000000  0.000000  0.000000

  -0.075353  -0.000668  0.000000
  -0.000668  0.020074  0.000000
  0.000000  0.000000  0.000000

  -0.051117  -0.014242  0.000000
  -0.014242  0.022987  0.000000
  0.000000  0.000000  0.000000

  -0.065356  -0.001090  0.000000
  -0.001090  0.017337  0.000000
  0.000000  0.000000  0.000000

  -0.044363  -0.012954  0.000000
  -0.012954  0.020074  0.000000
  0.000000  0.000000  0.000000

  -0.056003  -0.001430  0.000000
  -0.001430  0.014789  0.000000
  0.000000  0.000000  0.000000

  -0.038087  -0.011661  0.000000
  -0.011661  0.017337  0.000000
  0.000000  0.000000  0.000000

  -0.047334  -0.001696  0.000000
  -0.001696  0.012438  0.000000
  0.000000  0.000000  0.000000

  -0.032290  -0.010393  0.000000
  -0.010393  0.014789  0.000000
  0.000000  0.000000  0.000000

  -0.039370  -0.001893  0.000000
  -0.001893  0.010285  0.000000
  0.000000  0.000000  0.000000

  -0.026972  -0.009169  0.000000
  -0.009169  0.012438  0.000000
  0.000000  0.000000  0.000000

  -0.032124  -0.002026  0.000000
  -0.002026  0.008333  0.000000
  0.000000  0.000000  0.000000

  -0.022135  -0.007997  0.000000
  -0.007997  0.010285  0.000000
  0.000000  0.000000  0.000000

  -0.025598  -0.002097  0.000000
  -0.002097  0.006581  0.000000
  0.000000  0.000000  0.000000

  -0.017779  -0.006882  0.000000
  -0.006882  0.008333  0.000000
  0.000000  0.000000  0.000000

  -0.019796  -0.002107  0.000000
  -0.002107  0.005029  0.000000
  0.000000  0.000000  0.000000

  -0.013906  -0.005827  0.000000
  -0.005827  0.006581  0.000000
  0.000000  0.000000  0.000000

  -0.014718  -0.002054  0.000000
  -0.002054  0.003678  0.000000
  0.000000  0.000000  0.000000

  -0.010515  -0.004831  0.000000
  -0.004831  0.005029  0.000000
  0.000000  0.000000  0.000000

  -0.010366  -0.001938  0.000000
  -0.001938  0.002525  0.000000
  0.000000  0.000000  0.000000

  -0.007604  -0.003895  0.000000
  -0.003895  0.003678  0.000000
  0.000000  0.000000  0.000000

  -0.006743  -0.001752  0.000000
  -0.001752  0.001568  0.000000
  0.000000  0.000000  0.000000

  -0.005171  -0.003017  0.000000
  -0.003017  0.002525  0.000000
  0.000000  0.000000  0.000000

  -0.003858  -0.001485  0.000000
  -0.001485  0.000803  0.000000
  0.000000  0.000000  0.000000

  -0.003209  -0.002192  0.000000
  -0.002192  0.001568  0.000000
  0.000000  0.000000  0.000000

  -0.001735  -0.001114  0.000000
  -0.001114  0.000233  0.000000
  0.000000  0.000000  0.000000

  -0.001705  -0.001414  0.000000
  -0.001414  0.000803  0.000000
  0.000000  0.000000  0.000000

  -0.000431  -0.000621  0.000000
  -0.000621  -0.000097  0.000000
  0.000000  0.000000  0.000000

  -0.000652  -0.000676  0.000000
  -0.000676  0.000233  0.000000
  0.000000  0.000000  0.000000

  -0.000034  -0.000068  0.000000
  -0.000068  -0.000034  0.000000
  0.000000  0.000000  0.000000

  -0.000094  -0.000006  0.000000
  -0.000006  -0.000097  0.000000
  0.000000  0.000000  0.000000

  -0.077860  -0.010823  0.000000
  -0.010823  0.011710  0.000000
  0.000000  0.000000  0.000000

  -0.035695  -0.026051  0.000000
  -0.026051  0.000000  0.000000
  0.000000  0.000000  0.000000

  -0.082281  -0.012401  0.000000
  -0.012401  0.017850  0.000000
  0.000000  0.000000  0.000000

  -0.038391  -0.031276  0.000000
  -0.031276  0.011710  0.000000
  0.000000  0.000000  0.000000

  -0.074278  -0.010708  0.000000
  -0.010708  0.017423  0.000000
  0.000000  0.000000  0.000000

  -0.037175  -0.029473  0.000000
  -0.029473  0.017850  0.000000
  0.000000  0.000000  0.000000

  -0.066080  -0.010238  0.000000
  -0.010238  0.015644  0.000000
  0.000000  0.000000  0.000000

  -0.033461  -0.027437  0.000000
  -0.027437  0.017423  0.000000
  0.000000  0.000000  0.000000

  -0.058353  -0.010087  0.000000
  -0.010087  0.013703  0.000000
  0.000000  0.000000  0.000000

  -0.029486  -0.025491  0.000000
  -0.025491  0.015644  0.000000
  0.000000  0.000000  0.000000

  -0.051117  -0.009938  0.000000
  -0.009938  0.011852  0.000000
  0.000000  0.000000  0.000000

  -0.025726  -0.023559  0.000000
  -0.023559  0.013703  0.000000
  0.000000  0.000000  0.000000

  -0.044363  -0.009713  0.000000
  -0.009713  0.010138  0.000000
  0.000000  0.000000  0.000000

  -0.022253  -0.021625  0.000000
  -0.021625  0.011852  0.000000
  0.000000  0.000000  0.000000

  -0.038087  -0.009402  0.000000
  -0.009402  0.008563  0.000000
  0.000000  0.000000  0.000000

  -0.019059  -0.019704  0.000000
  -0.019704  0.010138  0.000000
  0.000000  0.000000  0.000000

  -0.032290  -0.009012  0.000000
  -0.009012  0.007120  0.000000
  0.000000  0.000000  0.000000

  -0.016129  -0.017814  0.000000
  -0.017814  0.008563  0.000000
  0.000000  0.000000  0.000000

  -0.026972  -0.008550  0.000000
  -0.008550  0.005804  0.000000
  0.000000  0.000000  0.000000

  -0.013453  -0.015967  0.000000
  -0.015967  0.007120  0.000000
  0.000000  0.000000  0.000000

  -0.022135  -0.008022  0.000000
  -0.008022  0.004611  0.000000
  0.000000  0.000000  0.000000

  -0.011023  -0.014174  0.000000
  -0.014174  0.005804  0.000000
  0.000000  0.000000  0.000000

  -0.017779  -0.007430  0.000000
  -0.007430  0.003541  0.000000
  0.000000  0.000000  0.000000

  -0.008836  -0.012437  0.000000
  -0.012437  0.004611  0.000000
  0.000000  0.000000  0.000000

  -0.013906  -0.006777  0.000000
  -0.006777  0.002591  0.000000
  0.000000  0.000000  0.000000

  -0.006891  -0.010759  0.000000
  -0.010759  0.003541  0.000000
  0.000000  0.000000  0.000000

  -0.010515  -0.006062  0.000000
  -0.006062  0.001760  0.000000
  0.000000  0.000000  0.000000

  -0.005187  -0.009141  0.000000
  -0.009141  0.002591  0.000000
  0.000000  0.000000  0.000000

  -0.007604  -0.005285  0.000000
  -0.005285  0.001046  0.000000
  0.000000  0.000000  0.000000

  -0.003720  -0.007584  0.000000
  -0.007584  0.001760  0.000000
  0.000000  0.000000  0.000000

  -0.005171  -0.004446  0.000000
  -0.004446  0.000443  0.000000
  0.000000  0.000000  0.000000

  -0.002488  -0.006089  0.000000
  -0.006089  0.001046  0.000000
  0.000000  0.000000  0.000000

  -0.003209  -0.003544  0.000000
  -0.003544  -0.000055  0.000000
  0.000000  0.000000  0.000000

  -0.001483  -0.004656  0.000000
  -0.004656  0.000443  0.000000
  0.000000  0.000000  0.000000

  -0.001705  -0.002582  0.000000
  -0.002582  -0.000446  0.000000
  0.000000  0.000000  0.000000

  -0.000689  -0.003286  0.000000
  -0.003286  -0.000055  0.000000
  0.000000  0.000000  0.000000

  -0.000652  -0.001579  0.000000
  -0.001579  -0.000669  0.000000
  0.000000  0.000000  0.000000

  -0.000090  -0.001971  0.000000
  -0.001971  -0.000446  0.000000
  0.000000  0.000000  0.000000

  -0.000094  -0.000611  0.000000
  -0.000611  -0.000425  0.000000
  0.000000  0.000000  0.000000

  0.000281  -0.000676  0.000000
  -0.000676  -0.000669  0.000000
  0.000000  0.000000  0.000000

  -0.035695  -0.007793  0.000000
  -0.007793  0.002188  0.000000
  0.000000  0.000000  0.000000

  0.000822  -0.024957  0.000000
  -0.024957  0.000000  0.000000
  0.000000  0.000000  0.000000

  -0.038391  -0.014569  0.000000
  -0.014569  0.004222  0.000000
  0.000000  0.000000  0.000000

  0.000672  -0.033083  0.000000
  -0.033083  0.002188  0.000000
  0.000000  0.000000  0.000000

  -0.037175  -0.016052  0.000000
  -0.016052  0.004917  0.000000
  0.000000  0.000000  0.000000

  0.000144  -0.034364  0.000000
  -0.034364  0.004222  0.000000
  0.000000  0.000000  0.000000

  -0.033461  -0.015828  0.000000
  -0.015828  0.004467  0.000000
  0.000000  0.000000  0.000000

  0.000018  -0.032792  0.000000
  -0.032792  0.004917  0.000000
  0.000000  0.000000  0.000000

  -0.029486  -0.015356  0.000000
  -0.015356  0.003727  0.000000
  0.000000  0.000000  0.000000

  0.000185  -0.030562  0.000000
  -0.030562  0.004467  0.000000
  0.000000  0.000000  0.000000

  -0.025726  -0.014813  0.000000
  -0.014813  0.002991  0.000000
  0.000000  0.000000  0.000000

  0.000363  -0.028226  0.000000
  -0.028226  0.003727  0.000000
  0.000000  0.000000  0.000000

  -0.022253  -0.014205  0.000000
  -0.014205  0.002324  0.000000
  0.000000  0.000000  0.000000

  0.000486  -0.025908  0.000000
  -0.025908  0.002991  0.000000
  0.000000  0.000000  0.000000

  -0.019059  -0.013529  0.000000
  -0.013529  0.001730  0.000000
  0.000000  0.000000  0.000000

  0.000561  -0.023636  0.000000
  -0.023636  0.002324  0.000000
  0.000000  0.000000  0.000000

  -0.016129  -0.012786  0.000000
  -0.012786  0.001199  0.000000
  0.000000  0.000000  0.000000

  0.000605  -0.021419  0.000000
  -0.021419  0.001730  0.000000
  0.000000  0.000000  0.000000

  -0.013453  -0.011978  0.000000
  -0.011978  0.000720  0.000000
  0.000000  0.000000  0.000000

  0.000632  -0.019259  0.000000
  -0.019259  0.001199  0.000000
  0.000000  0.000000  0.000000

  -0.011023  -0.011106  0.000000
  -0.011106  0.000288  0.000000
  0.000000  0.000000  0.000000

  0.000651  -0.017159  0.000000
  -0.017159  0.000720  0.000000
  0.000000  0.000000  0.000000

  -0.008836  -0.010173  0.000000
  -0.010173  -0.000100  0.000000
  0.000000  0.000000  0.000000

  0.000668  -0.015119  0.000000
  -0.015119  0.000288  0.000000
  0.000000  0.000000  0.000000

  -0.006891  -0.009179  0.000000
  -0.009179  -0.000448  0.000000
  0.000000  0.000000  0.000000

  0.000683  -0.013140  0.000000
  -0.013140  -0.000100  0.000000
  0.000000  0.000000  0.000000

  -0.005187  -0.008127  0.000000
  -0.008127  -0.000755  0.000000
  0.000000  0.000000  0.000000

  0.000698  -0.011223  0.000000
  -0.011223  -0.000448  0.000000
  0.000000  0.000000  0.000000

  -0.003720  -0.007017  0.000000
  -0.007017  -0.001022  0.000000
  0.000000  0.000000  0.000000

  0.000713  -0.009368  0.000000
  -0.009368  -0.000755  0.000000
  0.000000  0.000000  0.000000

  -0.002488  -0.005856  0.000000
  -0.005856  -0.001253  0.000000
  0.000000  0.000000  0.000000

  0.000727  -0.007579  0.000000
  -0.007579  -0.001022  0.000000
  0.000000  0.000000  0.000000

  -0.001483  -0.004654  0.000000
  -0.004654  -0.001448  0.000000
  0.000000  0.000000  0.000000

  0.000739  -0.005862  0.000000
  -0.005862  -0.001253  0.000000
  0.000000  0.000000  0.000000

  -0.000689  -0.003427  0.000000
  -0.003427  -0.001610  0.000000
  0.000000  0.000000  0.000000

  0.000750  -0.004228  0.000000
  -0.004228  -0.001448  0.000000
  0.000000  0.000000  0.000000

  -0.000090  -0.002191  0.000000
  -0.002191  -0.001714  0.000000
  0.000000  0.000000  0.000000

  0.000769  -0.002673  0.000000
  -0.002673  -0.001610  0.000000
  0.000000  0.000000  0.000000

  0.000281  -0.000904  0.000000
  -0.000904  -0.001604  0.000000
  0.000000  0.000000  0.000000

  0.000826  -0.001121  0.000000
  -0.001121  -0.001714  0.000000
  0.000000  0.000000  0.000000

  0.000822  -0.006549  0.000000
  -0.006549  -0.005193  0.000000
  0.000000  0.000000  0.000000

  0.037638  -0.027554  0.000000
  -0.027554  0.000000  0.000000
  0.000000  0.000000  0.000000

  0.000672  -0.013714  0.000000
  -0.013714  -0.007229  0.000000
  0.000000  0.000000  0.000000

  0.039110  -0.033951  0.000000
  -0.033951  -0.005193  0.000000
  0.000000  0.000000  0.000000

  0.000144  -0.016049  0.000000
  -0.016049  -0.007354  0.000000
  0.000000  0.000000  0.000000

  0.037099  -0.034590  0.000000
  -0.034590  -0.007229  0.000000
  0.000000  0.000000  0.000000

  0.000018  -0.016284  0.000000
  -0.016284  -0.006984  0.000000
  0.000000  0.000000  0.000000

  0.033721  -0.032951  0.000000
  -0.032951  -0.007354  0.000000
  0.000000  0.000000  0.000000

  0.000185  -0.015832  0.000000
  -0.015832  -0.006571  0.000000
  0.000000  0.000000  0.000000

  0.030108  -0.030587  0.000000
  -0.030587  -0.006984  0.000000
  0.000000  0.000000  0.000000

  0.000363  -0.015207  0.000000
  -0.015207  -0.006154  0.000000
  0.000000  0.000000  0.000000

  0.026613  -0.028123  0.000000
  -0.028123  -0.006571  0.000000
  0.000000  0.000000  0.000000

  0.000486  -0.014522  0.000000
  -0.014522  -0.005736  0.000000
  0.000000  0.000000  0.000000

  0.023308  -0.025724  0.000000
  -0.025724  -0.006154  0.000000
  0.000000  0.000000  0.000000

  0.000561  -0.013791  0.000000
  -0.013791  -0.005325  0.000000
  0.000000  0.000000  0.000000

  0.020218  -0.023415  0.000000
  -0.023415  -0.005736  0.000000
  0.000000  0.000000  0.000000

  0.000605  -0.013010  0.000000
  -0.013010  -0.004933  0.000000
  0.000000  0.000000  0.000000

  0.017353  -0.021188  0.000000
  -0.021188  -0.005325  0.000000
  0.000000  0.000000  0.000000

  0.000632  -0.012173  0.000000
  -0.012173  -0.004568  0.000000
  0.000000  0.000000  0.000000

  0.014721  -0.019035  0.000000
  -0.019035  -0.004933  0.000000
  0.000000  0.000000  0.000000

  0.000651  -0.011278  0.000000
  -0.011278  -0.004236  0.000000
  0.000000  0.000000  0.000000

  0.012326  -0.016949  0.000000
  -0.016949  -0.004568  0.000000
  0.000000  0.000000  0.000000

  0.000668  -0.010324  0.000000
  -0.010324  -0.003941  0.000000
  0.000000  0.000000  0.000000

  0.010170  -0.014928  0.000000
  -0.014928  -0.004236  0.000000
  0.000000  0.000000  0.000000

  0.000683  -0.009311  0.000000
  -0.009311  -0.003685  0.000000
  0.000000  0.000000  0.000000

  0.008255  -0.012969  0.000000
  -0.012969  -0.003941  0.000000
  0.000000  0.000000  0.000000

  0.000698  -0.008240  0.000000
  -0.008240  -0.003467  0.000000
  0.000000  0.000000  0.000000

  0.006580  -0.011072  0.000000
  -0.011072  -0.003685  0.000000
  0.000000  0.000000  0.000000

  0.000713  -0.007112  0.000000
  -0.007112  -0.003286  0.000000
  0.000000  0.000000  0.000000

  0.005144  -0.009237  0.000000
  -0.009237  -0.003467  0.000000
  0.000000  0.000000  0.000000

  0.000727  -0.005933  0.000000
  -0.005933  -0.003138  0.000000
  0.000000  0.000000  0.000000

  0.003941  -0.007466  0.000000
  -0.007466  -0.003286  0.000000
  0.000000  0.000000  0.000000

  0.000739  -0.004712  0.000000
  -0.004712  -0.003020  0.000000
  0.000000  0.000000  0.000000

  0.002964  -0.005765  0.000000
  -0.005765  -0.003138  0.000000
  0.000000  0.000000  0.000000

  0.000750  -0.003464  0.000000
  -0.003464  -0.002934  0.000000
  0.000000  0.000000  0.000000

  0.002198  -0.004145  0.000000
  -0.004145  -0.003020  0.000000
  0.000000  0.000000  0.000000

  0.000769  -0.002196  0.000000
  -0.002196  -0.002918  0.000000
  0.000000  0.000000  0.000000

  0.001632  -0.002620  0.000000
  -0.002620  -0.002934  0.000000
  0.000000  0.000000  0.000000

  0.000826  -0.000820  0.000000
  -0.000820  -0.003080  0.000000
  0.000000  0.000000  0.000000

  0.001336  -0.001155  0.000000
  -0.001155  -0.002918  0.000000
  0.000000  0.000000  0.000000

  0.037638  -0.006442  0.000000
  -0.006442  -0.014702  0.000000
  0.000000  0.000000  0.000000

  0.079862  -0.034905  0.000000
  -0.034905  0.000000  0.000000
  0.000000  0.000000  0.000000

  0.039110  -0.010564  0.000000
  -0.010564  -0.019340  0.000000
  0.000000  0.000000  0.000000

  0.080477  -0.033566  0.000000
  -0.033566  -0.014702  0.000000
  0.000000  0.000000  0.000000

  0.037099  -0.011596  0.000000
  -0.011596  -0.019614  0.000000
  0.000000  0.000000  0.000000

  0.074750  -0.030558  0.000000
  -0.030558  -0.019340  0.000000
  0.000000  0.000000  0.000000

  0.033721  -0.011668  0.000000
  -0.011668  -0.018388  0.000000
  0.000000  0.000000  0.000000

  0.067255  -0.027822  0.000000
  -0.027822  -0.019614  0.000000
  0.000000  0.000000  0.000000

  0.030108  -0.011398  0.000000
  -0.011398  -0.016788  0.000000
  0.000000  0.000000  0.000000

  0.059624  -0.025355  0.000000
  -0.025355  -0.018388  0.000000
  0.000000  0.000000  0.000000

  0.026613  -0.011021  0.000000
  -0.011021  -0.015173  0.000000
  0.000000  0.000000  0.000000

  0.052362  -0.023088  0.000000
  -0.023088  -0.016788  0.000000
  0.000000  0.000000  0.000000

  0.023308  -0.010606  0.000000
  -0.010606  -0.013635  0.000000
  0.000000  0.000000  0.000000

  0.045589  -0.020978  0.000000
  -0.020978  -0.015173  0.000000
  0.000000  0.000000  0.000000

  0.020218  -0.010159  0.000000
  -0.010159  -0.012198  0.000000
  0.000000  0.000000  0.000000

  0.039315  -0.018989  0.000000
  -0.018989  -0.013635  0.000000
  0.000000  0.000000  0.000000

  0.017353  -0.009670  0.000000
  -0.009670  -0.010871  0.000000
  0.000000  0.000000  0.000000

  0.033535  -0.017097  0.000000
  -0.017097  -0.012198  0.000000
  0.000000  0.000000  0.000000

  0.014721  -0.009130  0.000000
  -0.009130  -0.009657  0.000000
  0.000000  0.000000  0.000000

  0.028242  -0.015284  0.000000
  -0.015284  -0.010871  0.000000
  0.000000  0.000000  0.000000

  0.012326  -0.008535  0.000000
  -0.008535  -0.008560  0.000000
  0.000000  0.000000  0.000000

  0.023433  -0.013541  0.000000
  -0.013541  -0.009657  0.000000
  0.000000  0.000000  0.000000

  0.010170  -0.007882  0.000000
  -0.007882  -0.007581  0.000000
  0.000000  0.000000  0.000000

  0.019108  -0.011862  0.000000
  -0.011862  -0.008560  0.000000
  0.000000  0.000000  0.000000

  0.008255  -0.007170  0.000000
  -0.007170  -0.006722  0.000000
  0.000000  0.000000  0.000000

  0.015264  -0.010245  0.000000
  -0.010245  -0.007581  0.000000
  0.000000  0.000000  0.000000

  0.006580  -0.006398  0.000000
  -0.006398  -0.005982  0.000000
  0.000000  0.000000  0.000000

  0.011903  -0.008688  0.000000
  -0.008688  -0.006722  0.000000
  0.000000  0.000000  0.000000

  0.005144  -0.005564  0.000000
  -0.005564  -0.005358  0.000000
  0.000000  0.000000  0.000000

  0.009022  -0.007192  0.000000
  -0.007192  -0.005982  0.000000
  0.000000  0.000000  0.000000

  0.003941  -0.004670  0.000000
  -0.004670  -0.004847  0.000000
  0.000000  0.000000  0.000000

  0.006619  -0.005754  0.000000
  -0.005754  -0.005358  0.000000
  0.000000  0.000000  0.000000

  0.002964  -0.003713  0.000000
  -0.003713  -0.004443  0.000000
  0.000000  0.000000  0.000000

  0.004692  -0.004374  0.000000
  -0.004374  -0.004847  0.000000
  0.000000  0.000000  0.000000

  0.002198  -0.002690  0.000000
  -0.002690  -0.004144  0.000000
  0.000000  0.000000  0.000000

  0.003228  -0.003055  0.000000
  -0.003055  -0.004443  0.000000
  0.000000  0.000000  0.000000

  0.001632  -0.001600  0.000000
  -0.001600  -0.003995  0.000000
  0.000000  0.000000  0.000000

  0.002211  -0.001815  0.000000
  -0.001815  -0.004144  0.000000
  0.000000  0.000000  0.000000

  0.001336  -0.000418  0.000000
  -0.000418  -0.004299  0.000000
  0.000000  0.000000  0.000000

  0.001634  -0.000719  0.000000
  -0.000719  -0.003995  0.000000
  0.000000  0.000000  0.000000

  0.079862  -0.005870  0.000000
  -0.005870  -0.030812  0.000000
  0.000000  0.000000  0.000000

  0.137932  -0.050311  0.000000
  -0.050311  0.000000  0.000000
  0.000000  0.000000  0.000000

  0.080477  -0.002796  0.000000
  -0.002796  -0.033816  0.000000
  0.000000  0.000000  0.000000

  0.126172  -0.027145  0.000000
  -0.027145  -0.030812  0.000000
  0.000000  0.000000  0.000000

  0.074750  -0.001747  0.000000
  -0.001747  -0.032180  0.000000
  0.000000  0.000000  0.000000

  0.112198  -0.019653  0.000000
  -0.019653  -0.033816  0.000000
  0.000000  0.000000  0.000000

  0.067255  -0.001705  0.000000
  -0.001705  -0.029404  0.000000
  0.000000  0.000000  0.000000

  0.099517  -0.016448  0.000000
  -0.016448  -0.032180  0.000000
  0.000000  0.000000  0.000000

  0.059624  -0.001934  0.000000
  -0.001934  -0.026443  0.000000
  0.000000  0.000000  0.000000

  0.087767  -0.014525  0.000000
  -0.014525  -0.029404  0.000000
  0.000000  0.000000  0.000000

  0.052362  -0.002196  0.000000
  -0.002196  -0.023592  0.000000
  0.000000  0.000000  0.000000

  0.076820  -0.013000  0.000000
  -0.013000  -0.026443  0.000000
  0.000000  0.000000  0.000000

  0.045589  -0.002431  0.000000
  -0.002431  -0.020928  0.000000
  0.000000  0.000000  0.000000

  0.066649  -0.011629  0.000000
  -0.011629  -0.023592  0.000000
  0.000000  0.000000  0.000000

  0.039315  -0.002622  0.000000
  -0.002622  -0.018465  0.000000
  0.000000  0.000000  0.000000

  0.057236  -0.010351  0.000000
  -0.010351  -0.020928  0.000000
  0.000000  0.000000  0.000000

  0.033535  -0.002764  0.000000
  -0.002764  -0.016202  0.000000
  0.000000  0.000000  0.000000

  0.048565  -0.009148  0.000000
  -0.009148  -0.018465  0.000000
  0.000000  0.000000  0.000000

  0.028242  -0.002850  0.000000
  -0.002850  -0.014141  0.000000
  0.000000  0.000000  0.000000

  0.040625  -0.008011  0.000000
  -0.008011  -0.016202  0.000000
  0.000000  0.000000  0.000000

  0.023433  -0.002880  0.000000
  -0.002880  -0.012280  0.000000
  0.000000  0.000000  0.000000

  0.033410  -0.006937  0.000000
  -0.006937  -0.014141  0.000000
  0.000000  0.000000  0.000000

  0.019108  -0.002849  0.000000
  -0.002849  -0.010619  0.000000
  0.000000  0.000000  0.000000

  0.026918  -0.005924  0.000000
  -0.005924  -0.012280  0.000000
  0.000000  0.000000  0.000000

  0.015264  -0.002759  0.000000
  -0.002759  -0.009158  0.000000
  0.000000  0.000000  0.000000

  0.021149  -0.004971  0.000000
  -0.004971  -0.010619  0.000000
  0.000000  0.000000  0.000000

  0.011903  -0.002607  0.000000
  -0.002607  -0.007899  0.000000
  0.000000  0.000000  0.000000

  0.016103  -0.004077  0.000000
  -0.004077  -0.009158  0.000000
  0.000000  0.000000  0.000000

  0.009022  -0.002391  0.000000
  -0.002391  -0.006840  0.000000
  0.000000  0.000000  0.000000

  0.011782  -0.003242  0.000000
  -0.003242  -0.007899  0.000000
  0.000000  0.000000  0.000000

  0.006619  -0.002105  0.000000
  -0.002105  -0.005984  0.000000
  0.000000  0.000000  0.000000

  0.008192  -0.002463  0.000000
  -0.002463  -0.006840  0.000000
  0.000000  0.000000  0.000000

  0.004692  -0.001739  0.000000
  -0.001739  -0.005332  0.000000
  0.000000  0.000000  0.000000

  0.005343  -0.001739  0.000000
  -0.001739  -0.005984  0.000000
  0.000000  0.000000  0.000000

  0.003228  -0.001269  0.000000
  -0.001269  -0.004891  0.000000
  0.000000  0.000000  0.000000

  0.003257  -0.001063  0.000000
  -0.001063  -0.005332  0.000000
  0.000000  0.000000  0.000000

  0.002211  -0.000663  0.000000
  -0.000663  -0.004683  0.000000
  0.000000  0.000000  0.000000

  0.001971  -0.000439  0.000000
  -0.000439  -0.004891  0.000000
  0.000000  0.000000  0.000000

  0.001634  0.000079  0.000000
  0.000079  -0.004826  0.000000
  0.000000  0.000000  0.000000

  0.001507  0.000071  0.000000
  0.000071  -0.004683  0.000000
  0.000000  0.000000  0.000000
POINT_DATA 147
VECTORS displacements double
  0.000000  0.000000  0.000000
  0.000000  0.000000  0.000000
  0.006897  -0.005031  0.000000
  0.003993  -0.003490  0.000000
  0.000000  0.000000  0.000000
  0.013205  -0.010649  0.000000
  0.008017  -0.008958  0.000000
  0.001882  -0.002755  0.000000
  0.003837  -0.007991  0.000000
  0.000000  0.000000  0.000000
  0.018815  -0.017803  0.000000
  0.011754  -0.016194  0.000000
  0.000041  -0.002496  0.000000
  0.000075  -0.007630  0.000000
  0.005692  -0.015213  0.000000
  0.023791  -0.026508  0.000000
  0.000000  0.000000  0.000000
  0.015117  -0.025038  0.000000
  -0.001785  -0.002605  0.000000
  0.000082  -0.014845  0.000000
  0.007378  -0.024119  0.000000
  -0.003704  -0.007841  0.000000
  -0.005563  -0.015091  0.000000
  0.028179  -0.036634  0.000000
  0.000000  0.000000  0.000000
  0.000083  -0.023769  0.000000
  0.018098  -0.035312  0.000000
  -0.003893  -0.003191  0.000000
  0.008884  -0.034473  0.000000
  -0.008007  -0.008733  0.000000
  -0.007236  -0.023993  0.000000
  0.000092  -0.034144  0.000000
  -0.011721  -0.015962  0.000000
  0.000000  0.000000  0.000000
  0.032020  -0.048015  0.000000
  -0.007318  -0.004864  0.000000
  0.020717  -0.046836  0.000000
  -0.013429  -0.010347  0.000000
  0.010214  -0.046077  0.000000
  -0.015025  -0.024775  0.000000
  -0.008710  -0.034331  0.000000
  -0.018866  -0.017423  0.000000
  0.000110  -0.045769  0.000000
  0.035353  -0.060482  0.000000
  0.022996  -0.059436  0.000000
  -0.017943  -0.035016  0.000000
  -0.023717  -0.026078  0.000000
  -0.009997  -0.045919  0.000000
  0.011380  -0.058754  0.000000
  0.000134  -0.058467  0.000000
  -0.028014  -0.036165  0.000000
  -0.020498  -0.046511  0.000000
  0.038215  -0.073874  0.000000
  -0.011109  -0.058583  0.000000
  0.024962  -0.072951  0.000000
  0.012391  -0.072341  0.000000
  -0.031782  -0.047515  0.000000
  0.000163  -0.072074  0.000000
  -0.022717  -0.059090  0.000000
  -0.012062  -0.072161  0.000000
  0.040643  -0.088041  0.000000
  0.026638  -0.087231  0.000000
  -0.035049  -0.059957  0.000000
  0.013258  -0.086688  0.000000
  -0.024621  -0.072589  0.000000
  0.000193  -0.086441  0.000000
  -0.012869  -0.086501  0.000000
  0.042674  -0.102847  0.000000
  -0.037850  -0.073328  0.000000
  0.028051  -0.102140  0.000000
  0.013994  -0.101657  0.000000
  -0.026235  -0.086857  0.000000
  0.000224  -0.101428  0.000000
  -0.013541  -0.101464  0.000000
  -0.040216  -0.087479  0.000000
  0.044345  -0.118164  0.000000
  0.029222  -0.117550  0.000000
  -0.027584  -0.101755  0.000000
  0.014611  -0.117122  0.000000
  0.000257  -0.116910  0.000000
  -0.042185  -0.102269  0.000000
  -0.014093  -0.116924  0.000000
  0.045690  -0.133879  0.000000
  0.030178  -0.133348  0.000000
  -0.028691  -0.117155  0.000000
  0.015119  -0.132969  0.000000
  0.000290  -0.132771  0.000000
  -0.043791  -0.117572  0.000000
  -0.014534  -0.132766  0.000000
  0.046748  -0.149888  0.000000
  -0.029580  -0.132943  0.000000
  0.030941  -0.149430  0.000000
  0.015532  -0.149094  0.000000
  0.000324  -0.148910  0.000000
  -0.045071  -0.133273  0.000000
  -0.014879  -0.148888  0.000000
  -0.030275  -0.149017  0.000000
  0.047553  -0.166103  0.000000
  0.031536  -0.165708  0.000000
  0.015861  -0.165409  0.000000
  0.000359  -0.165236  0.000000
  -0.046061  -0.149269  0.000000
  -0.015138  -0.165198  0.000000
  -0.030801  -0.165286  0.000000
  0.048142  -0.182444  0.000000
  0.031987  -0.182102  0.000000
  0.016118  -0.181834  0.000000
  -0.046797  -0.165470  0.000000
  0.000395  -0.181670  0.000000
  -0.015324  -0.181619  0.000000
  -0.031181  -0.181671  0.000000
  0.048552  -0.198846  0.000000
  0.032318  -0.198547  0.000000
  0.016315  -0.198304  0.000000
  -0.047315  -0.181798  0.000000
  0.000431  -0.198147  0.000000
  -0.015449  -0.198085  0.000000
  -0.031440  -0.198107  0.000000
  0.048819  -0.215253  0.000000
  0.032553  -0.214987  0.000000
  -0.047652  -0.198185  0.000000
  0.016463  -0.214765  0.000000
  0.000468  -0.214614  0.000000
  -0.015523  -0.214541  0.000000
  -0.031600  -0.214538  0.000000
  0.048982  -0.231626  0.000000
  -0.047845  -0.214579  0.000000
  0.032714  -0.231381  0.000000
  0.016573  -0.231174  0.000000
  0.000506  -0.231028  0.000000
  -0.015557  -0.230947  0.000000
  -0.031685  -0.230925  0.000000
  -0.047932  -0.230936  0.000000
  0.049080  -0.247938  0.000000
  0.032825  -0.247704  0.000000
  0.016655  -0.247504  0.000000
  0.000544  -0.247358  0.000000
  -0.015562  -0.247272  0.000000
  -0.031718  -0.247239  0.000000
  -0.047953  -0.247234  0.000000
  0.049156  -0.264186  0.000000
  0.032906  -0.263945  0.000000
  0.016722  -0.263730  0.000000
  0.000586  -0.263576  0.000000
  -0.015548  -0.263496  0.000000
  -0.031723  -0.263475  0.000000
  -0.047955  -0.263473  0.000000

CELL_DATA 240
TENSORS stress double
  -31934.547332  -2267.895581  0.000000
  -2267.895581  -3605.166488  0.000000
  0.000000  0.000000  0.000000


  -18389.914558  -5026.452893  0.000000
  -5026.452893  -6123.841548  0.000000
  0.000000  0.000000  0.000000


  -26329.568042  -96.885929  0.000000
  -96.885929  -1988.794763  0.000000
  0.000000  0.000000  0.000000


  -16801.444254  -3337.083710  0.000000
  -3337.083710  1434.156837  0.000000
  0.000000  0.000000  0.000000


  -23385.992877  109.573398  0.000000
  109.573398  -1652.710594  0.000000
  0.000000  0.000000  0.000000


  -15004.852728  -2846.689236  0.000000
  -2846.689236  1782.335436  0.000000
  0.000000  0.000000  0.000000


  -20868.270640  59.600453  0.000000
  59.600453  -1478.307736  0.000000
  0.000000  0.000000  0.000000


  -13309.734223  -2627.295635  0.000000
  -2627.295635  1702.683538  0.000000
  0.000000  0.000000  0.000000


  -18488.346715  -25.714497  0.000000
  -25.714497  -1329.376760  0.000000
  0.000000  0.000000  0.000000


  -11733.344448  -2439.524378  0.000000
  -2439.524378  1563.622686  0.000000
  0.000000  0.000000  0.000000


  -16218.931162  -105.168927  0.000000
  -105.168927  -1185.453788  0.000000
  0.000000  0.000000  0.000000


  -10265.500016  -2243.701056  0.000000
  -2243.701056  1408.831191  0.000000
  0.000000  0.000000  0.000000


  -14072.953232  -171.652402  0.000000
  -171.652402  -1045.569761  0.000000
  0.000000  0.000000  0.000000


  -8899.438517  -2040.809003  0.000000
  -2040.809003  1251.937263  0.000000
  0.000000  0.000000  0.000000


  -12064.196106  -225.238825  0.000000
  -225.238825  -911.612900  0.000000
  0.000000  0.000000  0.000000


  -7632.334779  -1837.104724  0.000000
  -1837.104724  1099.156184  0.000000
  0.000000  0.000000  0.000000


  -10201.582002  -267.109068  0.000000
  -267.109068  -785.198040  0.000000
  0.000000  0.000000  0.000000


  -6463.307088  -1637.375278  0.000000
  -1637.375278  953.483143  0.000000
  0.000000  0.000000  0.000000


  -8490.014462  -298.236016  0.000000
  -298.236016  -667.316968  0.000000
  0.000000  0.000000  0.000000


  -5392.203539  -1444.458473  0.000000
  -1444.458473  816.324988  0.000000
  0.000000  0.000000  0.000000


  -6931.931166  -319.224915  0.000000
  -319.224915  -558.506986  0.000000
  0.000000  0.000000  0.000000


  -4419.075018  -1259.847280  0.000000
  -1259.847280  688.305867  0.000000
  0.000000  0.000000  0.000000


  -5528.448993  -330.395636  0.000000
  -330.395636  -459.048472  0.000000
  0.000000  0.000000  0.000000


  -3543.989142  -1084.257258  0.000000
  -1084.257258  569.677708  0.000000
  0.000000  0.000000  0.000000


  -4280.061423  -331.870115  0.000000
  -331.870115  -369.118664  0.000000
  0.000000  0.000000  0.000000


  -2766.973249  -917.991934  0.000000
  -917.991934  460.522951  0.000000
  0.000000  0.000000  0.000000


  -3187.053142  -323.596842  0.000000
  -323.596842  -288.931967  0.000000
  0.000000  0.000000  0.000000


  -2087.977173  -761.138166  0.000000
  -761.138166  360.845391  0.000000
  0.000000  0.000000  0.000000


  -2249.821388  -305.262832  0.000000
  -305.262832  -218.927416  0.000000
  0.000000  0.000000  0.000000


  -1506.783099  -613.634911  0.000000
  -613.634911  270.597957  0.000000
  0.000000  0.000000  0.000000


  -1469.330946  -276.011875  0.000000
  -276.011875  -160.040907  0.000000
  0.000000  0.000000  0.000000


  -1022.782725  -475.227609  0.000000
  -475.227609  189.676459  0.000000
  0.000000  0.000000  0.000000


  -848.017261  -233.907473  0.000000
  -233.907473  -113.853512  0.000000
  0.000000  0.000000  0.000000


  -634.563946  -345.301810  0.000000
  -345.301810  117.936504  0.000000
  0.000000  0.000000  0.000000


  -391.392627  -175.509412  0.000000
  -175.509412  -81.423307  0.000000
  0.000000  0.000000  0.000000


  -339.581939  -222.717161  0.000000
  -222.717161  55.455451  0.000000
  0.000000  0.000000  0.000000


  -109.409391  -97.853949  0.000000
  -97.853949  -56.839761  0.000000
  0.000000  0.000000  0.000000


  -135.563343  -106.473824  0.000000
  -106.473824  3.767844  0.000000
  0.000000  0.000000  0.000000


  -10.651310  -10.651310  0.000000
  -10.651310  -10.651310  0.000000
  0.000000  0.000000  0.000000


  -29.899230  -0.904132  0.000000
  -0.904132  -30.362878  0.000000
  0.000000  0.000000  0.000000


  -17468.917438  -1705.073894  0.000000
  -1705.073894  -3358.084430  0.000000
  0.000000  0.000000  0.000000


  -8430.757140  -4104.072894  0.000000
  -4104.072894  -2807.442127  0.000000
  0.000000  0.000000  0.000000


  -18030.125252  -1953.608654  0.000000
  -1953.608654  -2255.575888  0.000000
  0.000000  0.000000  0.000000


  -8146.620788  -4927.167886  0.000000
  -4927.167886  -253.759645  0.000000
  0.000000  0.000000  0.000000


  -16173.447636  -1686.995281  0.000000
  -1686.995281  -1726.958580  0.000000
  0.000000  0.000000  0.000000


  -7376.417736  -4643.235652  0.000000
  -4643.235652  1292.108715  0.000000
  0.000000  0.000000  0.000000


  -14376.955064  -1612.856181  0.000000
  -1612.856181  -1502.183852  0.000000
  0.000000  0.000000  0.000000


  -6532.734712  -4322.338034  0.000000
  -4322.338034  1483.398824  0.000000
  0.000000  0.000000  0.000000


  -12704.570498  -1589.103017  0.000000
  -1589.103017  -1352.972060  0.000000
  0.000000  0.000000  0.000000


  -5733.837249  -4015.842084  0.000000
  -4015.842084  1375.974380  0.000000
  0.000000  0.000000  0.000000


  -11141.253653  -1565.636921  0.000000
  -1565.636921  -1221.059611  0.000000
  0.000000  0.000000  0.000000


  -4998.537067  -3711.473812  0.000000
  -3711.473812  1213.137073  0.000000
  0.000000  0.000000  0.000000


  -9680.856483  -1530.156594  0.000000
  -1530.156594  -1094.663235  0.000000
  0.000000  0.000000  0.000000


  -4323.745193  -3406.799680  0.000000
  -3406.799680  1049.170706  0.000000
  0.000000  0.000000  0.000000


  -8322.420858  -1481.179107  0.000000
  -1481.179107  -973.174385  0.000000
  0.000000  0.000000  0.000000


  -3704.186433  -3104.139894  0.000000
  -3104.139894  895.567892  0.000000
  0.000000  0.000000  0.000000


  -7066.545778  -1419.721274  0.000000
  -1419.721274  -858.044453  0.000000
  0.000000  0.000000  0.000000


  -3136.139374  -2806.337768  0.000000
  -2806.337768  753.857349  0.000000
  0.000000  0.000000  0.000000


  -5913.994719  -1346.964936  0.000000
  -1346.964936  -750.615491  0.000000
  0.000000  0.000000  0.000000


  -2617.468567  -2515.500875  0.000000
  -2515.500875  623.498258  0.000000
  0.000000  0.000000  0.000000


  -4865.322513  -1263.742416  0.000000
  -1263.742416  -651.776701  0.000000
  0.000000  0.000000  0.000000


  -2147.069287  -2232.919087  0.000000
  -2232.919087  503.770677  0.000000
  0.000000  0.000000  0.000000


  -3920.857099  -1170.534457  0.000000
  -1170.534457  -562.057899  0.000000
  0.000000  0.000000  0.000000


  -1724.403166  -1959.291047  0.000000
  -1959.291047  394.149441  0.000000
  0.000000  0.000000  0.000000


  -3080.765633  -1067.572483  0.000000
  -1067.572483  -481.796520  0.000000
  0.000000  0.000000  0.000000


  -1349.196499  -1694.960472  0.000000
  -1694.960472  294.305080  0.000000
  0.000000  0.000000  0.000000


  -2345.105805  -954.927767  0.000000
  -954.927767  -411.312664  0.000000
  0.000000  0.000000  0.000000


  -1021.242259  -1440.091702  0.000000
  -1440.091702  204.024764  0.000000
  0.000000  0.000000  0.000000


  -1713.812492  -832.565917  0.000000
  -832.565917  -351.111930  0.000000
  0.000000  0.000000  0.000000


  -740.222284  -1194.791372  0.000000
  -1194.791372  123.113549  0.000000
  0.000000  0.000000  0.000000


  -1186.541892  -700.386072  0.000000
  -700.386072  -302.092811  0.000000
  0.000000  0.000000  0.000000


  -505.446860  -959.195499  0.000000
  -959.195499  51.273825  0.000000
  0.000000  0.000000  0.000000


  -762.194819  -558.325071  0.000000
  -558.325071  -265.339392  0.000000
  0.000000  0.000000  0.000000


  -315.387481  -733.493466  0.000000
  -733.493466  -11.998392  0.000000
  0.000000  0.000000  0.000000


  -437.799303  -406.817509  0.000000
  -406.817509  -239.491588  0.000000
  0.000000  0.000000  0.000000


  -167.034119  -517.677086  0.000000
  -517.677086  -67.150879  0.000000
  0.000000  0.000000  0.000000


  -206.511678  -248.717851  0.000000
  -248.717851  -209.290219  0.000000
  0.000000  0.000000  0.000000


  -56.463810  -310.471948  0.000000
  -310.471948  -112.506869  0.000000
  0.000000  0.000000  0.000000


  -55.681684  -96.232224  0.000000
  -96.232224  -107.787666  0.000000
  0.000000  0.000000  0.000000


  13.675948  -106.534336  0.000000
  -106.534336  -135.967740  0.000000
  0.000000  0.000000  0.000000


  -8258.696850  -1227.668922  0.000000
  -1227.668922  -2290.744561  0.000000
  0.000000  0.000000  0.000000


  194.142328  -3931.754256  0.000000
  -3931.754256  64.649395  0.000000
  0.000000  0.000000  0.000000


  -8735.530523  -2295.192020  0.000000
  -2295.192020  -2022.257350  0.000000
  0.000000  0.000000  0.000000


  330.681937  -5211.875536  0.000000
  -5211.875536  569.518575  0.000000
  0.000000  0.000000  0.000000


  -8393.625612  -2528.898593  0.000000
  -2528.898593  -1762.569592  0.000000
  0.000000  0.000000  0.000000


  366.036643  -5413.760249  0.000000
  -5413.760249  1008.564516  0.000000
  0.000000  0.000000  0.000000


  -7551.720965  -2493.501600  0.000000
  -2493.501600  -1576.619955  0.000000
  0.000000  0.000000  0.000000


  391.013473  -5166.022393  0.000000
  -5166.022393  1162.715224  0.000000
  0.000000  0.000000  0.000000


  -6671.136872  -2419.239586  0.000000
  -2419.239586  -1438.739202  0.000000
  0.000000  0.000000  0.000000


  395.043221  -4814.678221  0.000000
  -4814.678221  1069.652519  0.000000
  0.000000  0.000000  0.000000


  -5841.071448  -2333.636436  0.000000
  -2333.636436  -1316.996204  0.000000
  0.000000  0.000000  0.000000


  378.929174  -4446.702848  0.000000
  -4446.702848  908.932791  0.000000
  0.000000  0.000000  0.000000


  -5073.141856  -2237.856436  0.000000
  -2237.856436  -1201.269723  0.000000
  0.000000  0.000000  0.000000


  350.067804  -4081.521631  0.000000
  -4081.521631  744.653167  0.000000
  0.000000  0.000000  0.000000


  -4365.508137  -2131.397024  0.000000
  -2131.397024  -1090.383169  0.000000
  0.000000  0.000000  0.000000


  315.221224  -3723.632532  0.000000
  -3723.632532  593.055183  0.000000
  0.000000  0.000000  0.000000


  -3715.351863  -2014.323719  0.000000
  -2014.323719  -985.519495  0.000000
  0.000000  0.000000  0.000000


  278.857838  -3374.323183  0.000000
  -3374.323183  456.190701  0.000000
  0.000000  0.000000  0.000000


  -3120.806380  -1886.971229  0.000000
  -1886.971229  -888.026705  0.000000
  0.000000  0.000000  0.000000


  243.517245  -3034.114719  0.000000
  -3034.114719  332.783918  0.000000
  0.000000  0.000000  0.000000


  -2580.852305  -1749.668921  0.000000
  -1749.668921  -798.881028  0.000000
  0.000000  0.000000  0.000000


  210.498420  -2703.266149  0.000000
  -2703.266149  221.297794  0.000000
  0.000000  0.000000  0.000000


  -2094.973257  -1602.659511  0.000000
  -1602.659511  -718.673656  0.000000
  0.000000  0.000000  0.000000


  180.400987  -2381.909711  0.000000
  -2381.909711  120.616318  0.000000
  0.000000  0.000000  0.000000


  -1662.890902  -1446.124561  0.000000
  -1446.124561  -647.720154  0.000000
  0.000000  0.000000  0.000000


  153.462082  -2070.124440  0.000000
  -2070.124440  30.055312  0.000000
  0.000000  0.000000  0.000000


  -1284.376782  -1280.267652  0.000000
  -1280.267652  -586.168998  0.000000
  0.000000  0.000000  0.000000


  129.730339  -1768.007984  0.000000
  -1768.007984  -50.777281  0.000000
  0.000000  0.000000  0.000000


  -959.070145  -1105.464164  0.000000
  -1105.464164  -534.087237  0.000000
  0.000000  0.000000  0.000000


  109.121907  -1475.778100  0.000000
  -1475.778100  -122.133934  0.000000
  0.000000  0.000000  0.000000


  -686.200498  -922.528333  0.000000
  -922.528333  -491.529891  0.000000
  0.000000  0.000000  0.000000


  91.394309  -1193.942323  0.000000
  -1193.942323  -184.282573  0.000000
  0.000000  0.000000  0.000000


  -464.082305  -733.118458  0.000000
  -733.118458  -458.529393  0.000000
  0.000000  0.000000  0.000000


  76.131851  -923.528777  0.000000
  -923.528777  -237.673219  0.000000
  0.000000  0.000000  0.000000


  -289.308753  -539.945431  0.000000
  -539.945431  -434.341969  0.000000
  0.000000  0.000000  0.000000


  63.182283  -666.010613  0.000000
  -666.010613  -282.950285  0.000000
  0.000000  0.000000  0.000000


  -156.197753  -345.104318  0.000000
  -345.104318  -412.008200  0.000000
  0.000000  0.000000  0.000000


  54.953203  -421.025335  0.000000
  -421.025335  -319.702738  0.000000
  0.000000  0.000000  0.000000


  -59.830976  -142.387252  0.000000
  -142.387252  -356.709255  0.000000
  0.000000  0.000000  0.000000


  60.330066  -176.654405  0.000000
  -176.654405  -339.904436  0.000000
  0.000000  0.000000  0.000000


  -214.301022  -1031.792156  0.000000
  -1031.792156  -1161.907213  0.000000
  0.000000  0.000000  0.000000


  8889.680860  -4340.810885  0.000000
  -4340.810885  2960.263726  0.000000
  0.000000  0.000000  0.000000


  -409.928414  -2160.516012  0.000000
  -2160.516012  -1654.536534  0.000000
  0.000000  0.000000  0.000000


  8829.043054  -5348.664520  0.000000
  -5348.664520  1849.526364  0.000000
  0.000000  0.000000  0.000000


  -544.476868  -2528.361236  0.000000
  -2528.361236  -1725.710290  0.000000
  0.000000  0.000000  0.000000


  8194.006035  -5449.242509  0.000000
  -5449.242509  1210.573637  0.000000
  0.000000  0.000000  0.000000


  -544.995085  -2565.434039  0.000000
  -2565.434039  -1648.121286  0.000000
  0.000000  0.000000  0.000000


  7386.157243  -5191.018364  0.000000
  -5191.018364  915.190869  0.000000
  0.000000  0.000000  0.000000


  -473.113586  -2494.142643  0.000000
  -2494.142643  -1537.424978  0.000000
  0.000000  0.000000  0.000000


  6562.030642  -4818.657029  0.000000
  -4818.657029  718.518282  0.000000
  0.000000  0.000000  0.000000


  -398.278809  -2395.658884  0.000000
  -2395.658884  -1425.025117  0.000000
  0.000000  0.000000  0.000000


  5768.881654  -4430.520522  0.000000
  -4430.520522  541.159437  0.000000
  0.000000  0.000000  0.000000


  -336.324541  -2287.822883  0.000000
  -2287.822883  -1316.585109  0.000000
  0.000000  0.000000  0.000000


  5021.210618  -4052.592081  0.000000
  -4052.592081  379.664862  0.000000
  0.000000  0.000000  0.000000


  -286.421719  -2172.689473  0.000000
  -2172.689473  -1213.680384  0.000000
  0.000000  0.000000  0.000000


  4324.135422  -3688.722326  0.000000
  -3688.722326  235.348059  0.000000
  0.000000  0.000000  0.000000


  -245.187526  -2049.561810  0.000000
  -2049.561810  -1117.519103  0.000000
  0.000000  0.000000  0.000000


  3679.738304  -3337.901541  0.000000
  -3337.901541  107.050904  0.000000
  0.000000  0.000000  0.000000


  -210.002383  -1917.718398  0.000000
  -1917.718398  -1029.136887  0.000000
  0.000000  0.000000  0.000000


  3088.898816  -2998.721179  0.000000
  -2998.721179  -7.268350  0.000000
  0.000000  0.000000  0.000000


  -179.303052  -1776.750555  0.000000
  -1776.750555  -949.277195  0.000000
  0.000000  0.000000  0.000000


  2551.944912  -2670.199487  0.000000
  -2670.199487  -109.408437  0.000000
  0.000000  0.000000  0.000000


  -152.264314  -1626.482640  0.000000
  -1626.482640  -878.378579  0.000000
  0.000000  0.000000  0.000000


  2068.941177  -2351.769384  0.000000
  -2351.769384  -200.611867  0.000000
  0.000000  0.000000  0.000000


  -128.479266  -1466.891806  0.000000
  -1466.891806  -816.615402  0.000000
  0.000000  0.000000  0.000000


  1639.815891  -2043.147454  0.000000
  -2043.147454  -281.615871  0.000000
  0.000000  0.000000  0.000000


  -107.745404  -1298.096499  0.000000
  -1298.096499  -763.917649  0.000000
  0.000000  0.000000  0.000000


  1264.378408  -1744.242858  0.000000
  -1744.242858  -352.793797  0.000000
  0.000000  0.000000  0.000000


  -89.945392  -1120.433730  0.000000
  -1120.433730  -719.933632  0.000000
  0.000000  0.000000  0.000000


  942.223704  -1455.140833  0.000000
  -1455.140833  -414.277936  0.000000
  0.000000  0.000000  0.000000


  -75.000355  -934.659345  0.000000
  -934.659345  -683.966249  0.000000
  0.000000  0.000000  0.000000


  672.478908  -1176.190196  0.000000
  -1176.190196  -466.046340  0.000000
  0.000000  0.000000  0.000000


  -62.889893  -742.281485  0.000000
  -742.281485  -655.155935  0.000000
  0.000000  0.000000  0.000000


  453.341929  -908.245769  0.000000
  -908.245769  -508.028268  0.000000
  0.000000  0.000000  0.000000


  -53.743454  -545.700623  0.000000
  -545.700623  -634.078626  0.000000
  0.000000  0.000000  0.000000


  281.654149  -653.044456  0.000000
  -653.044456  -540.422769  0.000000
  0.000000  0.000000  0.000000


  -47.998752  -345.997912  0.000000
  -345.997912  -628.867769  0.000000
  0.000000  0.000000  0.000000


  154.738694  -412.785764  0.000000
  -412.785764  -564.654071  0.000000
  0.000000  0.000000  0.000000


  -47.101796  -129.158982  0.000000
  -129.158982  -662.522641  0.000000
  0.000000  0.000000  0.000000


  85.974342  -182.034632  0.000000
  -182.034632  -584.254728  0.000000
  0.000000  0.000000  0.000000


  7733.319079  -1014.846917  0.000000
  -1014.846917  -512.294173  0.000000
  0.000000  0.000000  0.000000


  18862.586312  -5498.908944  0.000000
  -5498.908944  6281.241242  0.000000
  0.000000  0.000000  0.000000


  7716.341063  -1664.191209  0.000000
  -1664.191209  -1491.921057  0.000000
  0.000000  0.000000  0.000000


  17851.653690  -5287.993937  0.000000
  -5287.993937  2857.111252  0.000000
  0.000000  0.000000  0.000000


  7219.912199  -1826.853226  0.000000
  -1826.853226  -1714.633077  0.000000
  0.000000  0.000000  0.000000


  16134.116508  -4814.101430  0.000000
  -4814.101430  1311.198166  0.000000
  0.000000  0.000000  0.000000


  6518.324414  -1838.132465  0.000000
  -1838.132465  -1690.913724  0.000000
  0.000000  0.000000  0.000000


  14342.440210  -4383.089797  0.000000
  -4383.089797  657.168750  0.000000
  0.000000  0.000000  0.000000


  5790.950203  -1795.587265  0.000000
  -1795.587265  -1597.038594  0.000000
  0.000000  0.000000  0.000000


  12636.396214  -3994.457791  0.000000
  -3994.457791  346.404185  0.000000
  0.000000  0.000000  0.000000


  5092.323862  -1736.220102  0.000000
  -1736.220102  -1490.545646  0.000000
  0.000000  0.000000  0.000000


  11047.130315  -3637.300571  0.000000
  -3637.300571  153.269383  0.000000
  0.000000  0.000000  0.000000


  4432.818890  -1670.933938  0.000000
  -1670.933938  -1387.277265  0.000000
  0.000000  0.000000  0.000000


  9574.355188  -3304.854854  0.000000
  -3304.854854  1.970786  0.000000
  0.000000  0.000000  0.000000


  3815.869790  -1600.461720  0.000000
  -1600.461720  -1290.975160  0.000000
  0.000000  0.000000  0.000000


  8213.526119  -2991.586975  0.000000
  -2991.586975  -128.301758  0.000000
  0.000000  0.000000  0.000000


  3243.587896  -1523.372139  0.000000
  -1523.372139  -1202.710082  0.000000
  0.000000  0.000000  0.000000


  6961.246593  -2693.450283  0.000000
  -2693.450283  -243.564685  0.000000
  0.000000  0.000000  0.000000


  2717.349726  -1438.371700  0.000000
  -1438.371700  -1123.031384  0.000000
  0.000000  0.000000  0.000000


  5815.515549  -2407.833191  0.000000
  -2407.833191  -346.258173  0.000000
  0.000000  0.000000  0.000000


  2237.959813  -1344.653218  0.000000
  -1344.653218  -1052.306635  0.000000
  0.000000  0.000000  0.000000


  4775.239423  -2133.202367  0.000000
  -2133.202367  -437.754115  0.000000
  0.000000  0.000000  0.000000


  1805.824286  -1241.785368  0.000000
  -1241.785368  -990.752679  0.000000
  0.000000  0.000000  0.000000


  3839.840463  -1868.727459  0.000000
  -1868.727459  -518.880379  0.000000
  0.000000  0.000000  0.000000


  1421.093685  -1129.558491  0.000000
  -1129.558491  -938.439314  0.000000
  0.000000  0.000000  0.000000


  3009.013779  -1613.988839  0.000000
  -1613.988839  -590.090578  0.000000
  0.000000  0.000000  0.000000


  1083.731784  -1007.867423  0.000000
  -1007.867423  -895.276151  0.000000
  0.000000  0.000000  0.000000


  2282.576461  -1368.776789  0.000000
  -1368.776789  -651.565549  0.000000
  0.000000  0.000000  0.000000


  793.478758  -876.627258  0.000000
  -876.627258  -860.959454  0.000000
  0.000000  0.000000  0.000000


  1660.351986  -1132.962178  0.000000
  -1132.962178  -703.261624  0.000000
  0.000000  0.000000  0.000000


  549.652827  -735.704905  0.000000
  -735.704905  -834.893429  0.000000
  0.000000  0.000000  0.000000


  1142.025145  -906.425941  0.000000
  -906.425941  -744.893507  0.000000
  0.000000  0.000000  0.000000


  350.683246  -584.865509  0.000000
  -584.865509  -816.312603  0.000000
  0.000000  0.000000  0.000000


  726.855586  -689.093650  0.000000
  -689.093650  -775.884910  0.000000
  0.000000  0.000000  0.000000


  193.256563  -423.779392  0.000000
  -423.779392  -805.880983  0.000000
  0.000000  0.000000  0.000000


  413.022803  -481.345969  0.000000
  -481.345969  -795.553531  0.000000
  0.000000  0.000000  0.000000


  71.331586  -252.028390  0.000000
  -252.028390  -815.125869  0.000000
  0.000000  0.000000  0.000000


  196.318351  -285.866563  0.000000
  -285.866563  -804.861408  0.000000
  0.000000  0.000000  0.000000


  -22.619027  -65.803668  0.000000
  -65.803668  -910.360941  0.000000
  0.000000  0.000000  0.000000


  71.792208  -113.289187  0.000000
  -113.289187  -814.972482  0.000000
  0.000000  0.000000  0.000000


  16439.141878  -924.730475  0.000000
  -924.730475  -996.369670  0.000000
  0.000000  0.000000  0.000000


  32578.263882  -7925.992183  0.000000
  -7925.992183  10848.561873  0.000000
  0.000000  0.000000  0.000000


  16348.334652  -440.450057  0.000000
  -440.450057  -1657.360335  0.000000
  0.000000  0.000000  0.000000


  27377.162877  -4276.370530  0.000000
  -4276.370530  2645.991323  0.000000
  0.000000  0.000000  0.000000


  15124.223060  -275.242177  0.000000
  -275.242177  -1721.514890  0.000000
  0.000000  0.000000  0.000000


  23840.519013  -3096.193808  0.000000
  -3096.193808  837.537057  0.000000
  0.000000  0.000000  0.000000


  13572.431917  -268.678540  0.000000
  -268.678540  -1655.168466  0.000000
  0.000000  0.000000  0.000000


  20974.043431  -2591.233405  0.000000
  -2591.233405  226.475294  0.000000
  0.000000  0.000000  0.000000


  12002.875524  -304.742161  0.000000
  -304.742161  -1556.060349  0.000000
  0.000000  0.000000  0.000000


  18417.053563  -2288.311328  0.000000
  -2288.311328  -41.909457  0.000000
  0.000000  0.000000  0.000000


  10511.956587  -346.019083  0.000000
  -346.019083  -1453.858931  0.000000
  0.000000  0.000000  0.000000


  16064.350564  -2047.960838  0.000000
  -2047.960838  -203.589161  0.000000
  0.000000  0.000000  0.000000


  9121.693621  -382.982716  0.000000
  -382.982716  -1357.373259  0.000000
  0.000000  0.000000  0.000000


  13886.313700  -1832.017781  0.000000
  -1832.017781  -330.198012  0.000000
  0.000000  0.000000  0.000000


  7833.687727  -413.144166  0.000000
  -413.144166  -1268.957588  0.000000
  0.000000  0.000000  0.000000


  11872.627750  -1630.703234  0.000000
  -1630.703234  -441.312194  0.000000
  0.000000  0.000000  0.000000


  6646.321440  -435.401914  0.000000
  -435.401914  -1189.285865  0.000000
  0.000000  0.000000  0.000000


  10018.361561  -1441.122023  0.000000
  -1441.122023  -541.461202  0.000000
  0.000000  0.000000  0.000000


  5558.307883  -449.050468  0.000000
  -449.050468  -1118.653568  0.000000
  0.000000  0.000000  0.000000


  8320.900831  -1262.058816  0.000000
  -1262.058816  -631.650928  0.000000
  0.000000  0.000000  0.000000


  4568.948424  -453.637592  0.000000
  -453.637592  -1057.246602  0.000000
  0.000000  0.000000  0.000000


  6778.962349  -1092.888015  0.000000
  -1092.888015  -712.175631  0.000000
  0.000000  0.000000  0.000000


  3677.899503  -448.892325  0.000000
  -448.892325  -1005.189568  0.000000
  0.000000  0.000000  0.000000


  5392.029553  -933.295203  0.000000
  -933.295203  -783.160587  0.000000
  0.000000  0.000000  0.000000


  2884.978003  -434.635708  0.000000
  -434.635708  -962.570385  0.000000
  0.000000  0.000000  0.000000


  4160.003531  -783.133697  0.000000
  -783.133697  -844.648926  0.000000
  0.000000  0.000000  0.000000


  2190.031579  -410.670488  0.000000
  -410.670488  -929.478110  0.000000
  0.000000  0.000000  0.000000


  3083.051993  -642.315830  0.000000
  -642.315830  -896.611747  0.000000
  0.000000  0.000000  0.000000


  1592.815869  -376.619777  0.000000
  -376.619777  -906.072787  0.000000
  0.000000  0.000000  0.000000


  2161.662577  -510.718927  0.000000
  -510.718927  -938.924988  0.000000
  0.000000  0.000000  0.000000


  1092.794644  -331.642545  0.000000
  -331.642545  -892.732849  0.000000
  0.000000  0.000000  0.000000


  1396.957443  -388.085357  0.000000
  -388.085357  -971.293643  0.000000
  0.000000  0.000000  0.000000


  688.723952  -273.922775  0.000000
  -273.922775  -890.394322  0.000000
  0.000000  0.000000  0.000000


  791.399139  -273.915759  0.000000
  -273.915759  -993.097552  0.000000
  0.000000  0.000000  0.000000


  377.779050  -199.941331  0.000000
  -199.941331  -901.390627  0.000000
  0.000000  0.000000  0.000000


  349.965348  -167.511017  0.000000
  -167.511017  -1003.200937  0.000000
  0.000000  0.000000  0.000000


  153.946340  -104.506683  0.000000
  -104.506683  -932.104686  0.000000
  0.000000  0.000000  0.000000


  80.856555  -69.167462  0.000000
  -69.167462  -1000.265818  0.000000
  0.000000  0.000000  0.000000


  6.441883  12.430424  0.000000
  12.430424  -1011.219704  0.000000
  0.000000  0.000000  0.000000


  -12.430424  11.219704  0.000000
  11.219704  -987.508148  0.000000
  0.000000  0.000000  0.000000


SCALARS vonMisesStress double
LOOKUP_TABLE default
  189328.461488

  62775.174032

  157809.607684

  117011.713508

  18533.929543

  49897.197995

  154405.030967

  153525.873266

  101941.513563

  209208.071836

  240195.123643

  198419.178859

  87018.768325

  328152.675526

  182009.548177

  195308.497661

  103530.292463

  224245.842516

  32943.104777

  34328.393793

  247566.835433

  114540.948360

  520370.202773

  340325.439830

  585942.856830

  555073.312673

  276549.418575

  575650.005470

  999939.130188

  451737.267624

  369122.389716

  999139.146435

  625445.204458

  564579.953678

  650798.789459

  728893.749188

  738210.292837

  1083517.745335

  826934.495644

  859289.478613

  7684.824810

  62551.553422

  109299.139666

  37958.445531

  109345.515856

  177209.324755

  176249.999704

  153589.731368

  134925.497936

  58182.573354

  369633.877113

  157434.131940

  158846.503565

  307297.946733

  163018.707149

  97468.788181

  346081.354281

  325229.096678

  126937.787635

  447388.668136

  117395.552881

  126847.570184

  517164.653906

  358056.714043

  397746.128945

  451920.959570

  453832.924327

  535582.029655

  478323.985233

  433497.896645

  972095.403429

  536829.639261

  871796.996531

  1080251.049341

  596239.137681

  823208.012332

  1235181.020010

  804388.071600

  946605.693375

  1205808.788038

  36562.746972

  93692.463211

  86713.679107

  43800.066045

  149395.121022

  65209.363640

  227716.239782

  106995.709612

  63123.143829

  178417.702564

  251126.858260

  91802.191091

  122710.321155

  261209.621787

  239533.653264

  120238.971403

  516731.286100

  434294.725210

  336951.413253

  568028.043401

  395463.585427

  302801.975213

  113081.080480

  368770.266248

  498697.286948

  397892.003213

  558845.745008

  500552.370779

  411516.352363

  563710.389900

  552954.228180

  418357.500798

  1200171.635542

  625287.096992

  504526.782447

  1129905.436242

  812023.572294

  581228.017736

  1119292.602239

  695134.127946

  87899.512011

  54058.029005

  17555.777392

  104000.951605

  371.920274

  53036.177307

  66151.199401

  31834.108078

  53725.411371

  69515.915686

  231209.235854

  98040.347013

  101718.152987

  206868.461436

  213428.407719

  80702.059114

  473076.650368

  178895.048694

  429901.096812

  324851.637657

  359220.893231

  343476.307888

  376342.114158

  446519.898950

  436780.325698

  412937.384721

  590438.800163

  568845.611395

  503309.489273

  548671.654118

  166741.054923

  549280.040969

  635901.874445

  633950.273038

  1071546.058177

  668882.294569

  774855.812501

  1042540.962174

  709324.167128

  718173.245214

  87776.629079

  33984.805809

  44912.412031

  90984.128062

  45000.077983

  31243.279585

  39453.181623

  56490.699263

  75131.247289

  43632.947820

  118257.192317

  124657.439148

  95628.684532

  74367.974194

  154432.720737

  190032.345867

  142895.280706

  218826.375436

  74697.674999

  139924.270528

  403073.581648

  121740.410841

  159378.567847

  351534.028258

  435178.594601

  326086.138330

  669617.231009

  397484.338990

  371328.374108

  759251.054696

  637100.056517

  545842.907446

  617907.307973

  535143.656693

  679689.520871

  570941.301780

  1018668.825035

  697260.771586

  529990.468846

  1022266.476327

  49954.624063

  0.000000

  29039.274440

  30304.232240

  14973.411072

  15190.498423

  137629.609739

  92276.703640

  37065.836669

  256721.164718

  167769.654007

  132320.779783

  57877.333669

  153405.679440

  286149.081232

  42118.776635

  126267.699702

  209017.697200

  109496.409297

  72405.929094

  126249.563074

  117777.280543

  391477.879691

  137329.206566

  330268.324032

  339705.901602

  395281.736754

  363021.084954

  870643.536206

  486188.182127

  630445.486358

  765298.446874

  525652.654709

  566012.295895

  580148.111355

  640162.010000

  727029.797364

  598760.964461

  993251.438158

  683884.290611
