# vtk DataFile Version 2.0
geometrically linear steady-state plane stress analysis
ASCII

DATASET UNSTRUCTURED_GRID
POINTS 105 double
  -4.360470  -2.609820  0.000000
  -3.892189  -2.807383  0.000000
  -4.360470  -1.806630  0.000000
  -3.509448  -2.156558  0.000000
  -3.744083  -1.357950  0.000000
  -3.430680  -3.046950  0.000000
  -4.360470  -1.003450  0.000000
  -3.074551  -1.549907  0.000000
  -2.935391  -2.432367  0.000000
  -3.375283  -0.685584  0.000000
  -2.932753  -3.360517  0.000000
  -4.360470  -0.200260  0.000000
  -2.387988  -1.867078  0.000000
  -2.345600  -2.792969  0.000000
  -3.453371  0.179070  0.000000
  -2.202419  -1.143218  0.000000
  -2.405629  -3.754730  0.000000
  -4.360470  0.602930  0.000000
  -2.396915  -0.280408  0.000000
  -1.699814  -2.296916  0.000000
  -1.737432  -3.231901  0.000000
  -3.545426  0.770647  0.000000
  -1.456869  -1.548480  0.000000
  -2.639299  0.540339  0.000000
  -1.562822  -0.654084  0.000000
  -1.850669  -4.223450  0.000000
  -4.360470  1.406110  0.000000
  -1.734123  0.201386  0.000000
  -1.012157  -2.812593  0.000000
  -2.897644  1.277624  0.000000
  -1.110996  -3.741545  0.000000
  -0.699591  -2.053656  0.000000
  -0.736613  -1.118345  0.000000
  -1.930151  0.999235  0.000000
  -0.831773  -0.221495  0.000000
  -1.266790  -4.755721  0.000000
  -0.410991  -3.292179  0.000000
  -4.360470  2.209300  0.000000
  -3.286344  2.012134  0.000000
  -0.977070  0.640758  0.000000
  0.041315  -1.609177  0.000000
  0.029666  -2.582755  0.000000
  -2.205210  1.771849  0.000000
  -0.463614  -4.309144  0.000000
  0.006030  -0.670405  0.000000
  -1.162235  1.457686  0.000000
  -0.042370  0.205486  0.000000
  -0.654883  -5.342546  0.000000
  0.319489  -3.879433  0.000000
  0.858412  -2.210961  0.000000
  -0.147540  1.066353  0.000000
  0.882228  -1.238377  0.000000
  0.795357  -3.214055  0.000000
  0.202370  -4.926476  0.000000
  0.873847  -0.299403  0.000000
  -0.015038  -5.975680  0.000000
  0.840587  0.601878  0.000000
  1.064396  -4.538675  0.000000
  1.721522  -1.836322  0.000000
  1.646145  -2.829831  0.000000
  1.770885  -0.864914  0.000000
  0.889304  -5.588111  0.000000
  1.802252  0.072496  0.000000
  1.893064  -4.187193  0.000000
  0.655678  -6.646316  0.000000
  2.525781  -2.449357  0.000000
  1.804970  -5.255645  0.000000
  2.648932  -1.482327  0.000000
  2.475023  -3.492324  0.000000
  2.737988  -0.513211  0.000000
  1.596281  -6.280025  0.000000
  2.691674  -4.882867  0.000000
  1.358142  -7.339378  0.000000
  3.360368  -3.168742  0.000000
  3.508592  -2.144237  0.000000
  3.649238  -1.147307  0.000000
  2.521881  -5.931576  0.000000
  3.337627  -4.073156  0.000000
  2.324771  -6.987391  0.000000
  3.467480  -5.643717  0.000000
  4.349348  -2.844935  0.000000
  4.160310  -3.891414  0.000000
  4.538236  -1.822930  0.000000
  2.091105  -8.040550  0.000000
  4.014010  -4.964007  0.000000
  3.290711  -6.683114  0.000000
  3.072744  -7.694350  0.000000
  5.170500  -3.584526  0.000000
  5.408607  -2.537314  0.000000
  4.981959  -4.665205  0.000000
  2.849353  -8.731846  0.000000
  4.824531  -5.725250  0.000000
  4.379167  -6.735599  0.000000
  4.011229  -7.514210  0.000000
  6.264495  -3.301594  0.000000
  5.973082  -4.383242  0.000000
  5.809111  -5.438285  0.000000
  3.618181  -9.413432  0.000000
  4.317194  -8.613173  0.000000
  4.993908  -7.824976  0.000000
  5.659181  -7.069327  0.000000
  7.097491  -4.186796  0.000000
  6.345678  -6.348554  0.000000
  7.077870  -5.694017  0.000000
  7.941676  -5.067582  0.000000

CELLS  170  680
  3  104  101  103
  3  56  50  46
  3  10  16  13
  3  83  90  86
  3  82  75  74
  3  38  37  26
  3  47  55  53
  3  94  88  87
  3  45  42  33
  3  25  35  30
  3  69  62  60
  3  1  5  3
  3  64  72  70
  3  101  94  95
  3  50  45  39
  3  16  25  20
  3  90  97  98
  3  75  69  67
  3  0  1  2
  3  55  64  61
  3  88  82  80
  3  42  38  29
  3  35  47  43
  3  62  56  54
  3  5  10  8
  3  72  83  78
  3  46  50  39
  3  46  39  34
  3  60  62  54
  3  60  54  51
  3  80  82  74
  3  80  74  73
  3  34  39  27
  3  51  54  44
  3  73  74  65
  3  53  55  61
  3  53  61  57
  3  57  61  66
  3  53  57  48
  3  39  45  33
  3  39  33  27
  3  27  33  23
  3  8  10  13
  3  8  13  12
  3  12  13  19
  3  8  12  7
  3  86  90  98
  3  70  72  78
  3  70  78  76
  3  76  78  85
  3  70  76  66
  3  66  76  71
  3  70  66  61
  3  70  61  64
  3  71  76  79
  3  66  71  63
  3  43  47  53
  3  43  53  48
  3  43  48  36
  3  33  42  29
  3  33  29  23
  3  23  29  21
  3  21  29  26
  3  23  21  14
  3  67  69  60
  3  67  60  58
  3  58  60  51
  3  58  51  49
  3  67  58  65
  3  65  58  59
  3  67  65  74
  3  67  74  75
  3  59  58  49
  3  59  49  52
  3  65  59  68
  3  52  49  41
  3  59  52  63
  3  49  51  40
  3  13  16  20
  3  13  20  19
  3  19  20  28
  3  3  5  8
  3  3  8  7
  3  3  7  4
  3  29  38  26
  3  87  88  80
  3  87  80  81
  3  81  80  73
  3  81  73  77
  3  87  81  89
  3  77  73  68
  3  68  73  65
  3  77  68  71
  3  63  68  59
  3  81  77  84
  3  20  25  30
  3  20  30  28
  3  28  30  36
  3  36  30  43
  3  28  36  41
  3  43  30  35
  3  41  36  48
  3  78  83  86
  3  78  86  85
  3  85  86  93
  3  95  94  87
  3  95  87  89
  3  95  89  96
  3  54  56  46
  3  54  46  44
  3  44  46  34
  3  44  34  32
  3  32  34  24
  3  44  32  40
  3  40  32  31
  3  31  32  22
  3  40  31  41
  3  41  31  28
  3  28  31  19
  3  44  40  51
  3  1  3  2
  3  101  95  103
  3  27  23  18
  3  3  4  2
  3  96  89  91
  3  4  7  9
  3  93  86  98
  3  85  93  92
  3  95  96  103
  3  40  41  49
  3  79  76  85
  3  79  85  92
  3  79  92  91
  3  91  92  100
  3  63  71  68
  3  77  71  84
  3  14  17  11
  3  24  34  27
  3  24  27  18
  3  24  18  15
  3  71  79  84
  3  84  79  91
  3  66  63  57
  3  57  63  52
  3  23  14  18
  3  18  14  9
  3  9  14  11
  3  32  24  22
  3  22  24  15
  3  22  15  12
  3  12  15  7
  3  52  41  48
  3  52  48  57
  3  31  22  19
  3  19  22  12
  3  89  81  84
  3  89  84  91
  3  9  7  15
  3  92  99  100
  3  96  91  102
  3  4  9  6
  3  15  18  9
  3  6  2  4
  3  6  9  11
  3  99  92  93
  3  99  93  98
  3  17  14  21
  3  17  21  26
  3  102  103  96
  3  102  91  100

CELL_TYPES 170
5
5
5
5
5
5
5
5
5
5
5
5
5
5
5
5
5
5
5
5
5
5
5
5
5
5
5
5
5
5
5
5
5
5
5
5
5
5
5
5
5
5
5
5
5
5
5
5
5
5
5
5
5
5
5
5
5
5
5
5
5
5
5
5
5
5
5
5
5
5
5
5
5
5
5
5
5
5
5
5
5
5
5
5
5
5
5
5
5
5
5
5
5
5
5
5
5
5
5
5
5
5
5
5
5
5
5
5
5
5
5
5
5
5
5
5
5
5
5
5
5
5
5
5
5
5
5
5
5
5
5
5
5
5
5
5
5
5
5
5
5
5
5
5
5
5
5
5
5
5
5
5
5
5
5
5
5
5
5
5
5
5
5
5
5
5
5
5
5
5

CELL_DATA 170
TENSORS strain double
  0.094609  -0.033300  0.000000
  -0.033300  -0.220066  0.000000
  0.000000  0.000000  0.000000

  0.281252  -0.020470  0.000000
  -0.020470  -0.092652  0.000000
  0.000000  0.000000  0.000000

  -0.316498  -0.022047  0.000000
  -0.022047  0.103680  0.000000
  0.000000  0.000000  0.000000

  -0.016821  -0.013355  0.000000
  -0.013355  -0.001404  0.000000
  0.000000  0.000000  0.000000

  0.152717  -0.015730  0.000000
  -0.015730  -0.048644  0.000000
  0.000000  0.000000  0.000000

  0.392762  -0.127827  0.000000
  -0.127827  0.000000  0.000000
  0.000000  0.000000  0.000000

  -0.170347  -0.022691  0.000000
  -0.022691  0.057470  0.000000
  0.000000  0.000000  0.000000

  0.109784  -0.014819  0.000000
  -0.014819  -0.040051  0.000000
  0.000000  0.000000  0.000000

  0.352369  -0.025835  0.000000
  -0.025835  -0.111555  0.000000
  0.000000  0.000000  0.000000

  -0.242915  -0.021960  0.000000
  -0.021960  0.079704  0.000000
  0.000000  0.000000  0.000000

  0.213318  -0.019436  0.000000
  -0.019436  -0.069662  0.000000
  0.000000  0.000000  0.000000

  -0.401586  -0.045631  0.000000
  -0.045631  0.112279  0.000000
  0.000000  0.000000  0.000000

  -0.089140  -0.023995  0.000000
  -0.023995  0.028877  0.000000
  0.000000  0.000000  0.000000

  0.080103  -0.063006  0.000000
  -0.063006  -0.077615  0.000000
  0.000000  0.000000  0.000000

  0.315718  -0.021203  0.000000
  -0.021203  -0.103283  0.000000
  0.000000  0.000000  0.000000

  -0.280412  -0.021907  0.000000
  -0.021907  0.092909  0.000000
  0.000000  0.000000  0.000000

  -0.003102  -0.006740  0.000000
  -0.006740  -0.003649  0.000000
  0.000000  0.000000  0.000000

  0.181570  -0.018010  0.000000
  -0.018010  -0.058820  0.000000
  0.000000  0.000000  0.000000

  -0.392805  -0.128085  0.000000
  -0.128085  0.000000  0.000000
  0.000000  0.000000  0.000000

  -0.130318  -0.024161  0.000000
  -0.024161  0.043398  0.000000
  0.000000  0.000000  0.000000

  0.128579  -0.012767  0.000000
  -0.012767  -0.040432  0.000000
  0.000000  0.000000  0.000000

  0.401849  -0.046182  0.000000
  -0.046182  -0.113237  0.000000
  0.000000  0.000000  0.000000

  -0.206573  -0.021612  0.000000
  -0.021612  0.068084  0.000000
  0.000000  0.000000  0.000000

  0.246940  -0.020203  0.000000
  -0.020203  -0.081162  0.000000
  0.000000  0.000000  0.000000

  -0.354364  -0.025523  0.000000
  -0.025523  0.113372  0.000000
  0.000000  0.000000  0.000000

  -0.049606  -0.021466  0.000000
  -0.021466  0.014078  0.000000
  0.000000  0.000000  0.000000

  0.211976  -0.020816  0.000000
  -0.020816  -0.071577  0.000000
  0.000000  0.000000  0.000000

  0.211976  -0.049776  0.000000
  -0.049776  -0.069574  0.000000
  0.000000  0.000000  0.000000

  0.163142  -0.020306  0.000000
  -0.020306  -0.055088  0.000000
  0.000000  0.000000  0.000000

  0.163142  -0.048992  0.000000
  -0.048992  -0.052829  0.000000
  0.000000  0.000000  0.000000

  0.090164  -0.014579  0.000000
  -0.014579  -0.030547  0.000000
  0.000000  0.000000  0.000000

  0.090164  -0.043925  0.000000
  -0.043925  -0.026939  0.000000
  0.000000  0.000000  0.000000

  0.135534  -0.048087  0.000000
  -0.048087  -0.044014  0.000000
  0.000000  0.000000  0.000000

  0.104912  -0.048631  0.000000
  -0.048631  -0.034388  0.000000
  0.000000  0.000000  0.000000

  0.055119  -0.044205  0.000000
  -0.044205  -0.016394  0.000000
  0.000000  0.000000  0.000000

  -0.109290  -0.024176  0.000000
  -0.024176  0.036901  0.000000
  0.000000  0.000000  0.000000

  -0.109290  -0.054715  0.000000
  -0.054715  0.037238  0.000000
  0.000000  0.000000  0.000000

  -0.062974  -0.055947  0.000000
  -0.055947  0.021519  0.000000
  0.000000  0.000000  0.000000

  -0.075399  -0.054246  0.000000
  -0.054246  0.026217  0.000000
  0.000000  0.000000  0.000000

  0.235825  -0.022134  0.000000
  -0.022134  -0.079571  0.000000
  0.000000  0.000000  0.000000

  0.235825  -0.051538  0.000000
  -0.051538  -0.076403  0.000000
  0.000000  0.000000  0.000000

  0.149625  -0.043646  0.000000
  -0.043646  -0.044374  0.000000
  0.000000  0.000000  0.000000

  -0.235239  -0.022868  0.000000
  -0.022868  0.079424  0.000000
  0.000000  0.000000  0.000000

  -0.235239  -0.051561  0.000000
  -0.051561  0.076171  0.000000
  0.000000  0.000000  0.000000

  -0.132809  -0.052340  0.000000
  -0.052340  0.043574  0.000000
  0.000000  0.000000  0.000000

  -0.143558  -0.048163  0.000000
  -0.048163  0.043987  0.000000
  0.000000  0.000000  0.000000

  -0.007714  -0.007576  0.000000
  -0.007576  0.002208  0.000000
  0.000000  0.000000  0.000000

  -0.055394  -0.023878  0.000000
  -0.023878  0.018555  0.000000
  0.000000  0.000000  0.000000

  -0.055394  -0.053481  0.000000
  -0.053481  0.013434  0.000000
  0.000000  0.000000  0.000000

  -0.026970  -0.051775  0.000000
  -0.051775  0.006528  0.000000
  0.000000  0.000000  0.000000

  -0.046997  -0.057768  0.000000
  -0.057768  0.015604  0.000000
  0.000000  0.000000  0.000000

  -0.046603  -0.073225  0.000000
  -0.073225  0.014237  0.000000
  0.000000  0.000000  0.000000

  -0.083300  -0.055321  0.000000
  -0.055321  0.028173  0.000000
  0.000000  0.000000  0.000000

  -0.083300  -0.024870  0.000000
  -0.024870  0.028042  0.000000
  0.000000  0.000000  0.000000

  -0.017734  -0.076960  0.000000
  -0.076960  0.001252  0.000000
  0.000000  0.000000  0.000000

  -0.024371  -0.073555  0.000000
  -0.073555  0.008549  0.000000
  0.000000  0.000000  0.000000

  -0.136454  -0.021878  0.000000
  -0.021878  0.046066  0.000000
  0.000000  0.000000  0.000000

  -0.136454  -0.053855  0.000000
  -0.053855  0.048945  0.000000
  0.000000  0.000000  0.000000

  -0.095261  -0.047621  0.000000
  -0.047621  0.031054  0.000000
  0.000000  0.000000  0.000000

  0.254497  -0.029879  0.000000
  -0.029879  -0.085737  0.000000
  0.000000  0.000000  0.000000

  0.254497  -0.056535  0.000000
  -0.056535  -0.072390  0.000000
  0.000000  0.000000  0.000000

  0.157029  -0.036068  0.000000
  -0.036068  -0.026454  0.000000
  0.000000  0.000000  0.000000

  0.251880  -0.033407  0.000000
  -0.033407  -0.076074  0.000000
  0.000000  0.000000  0.000000

  0.155397  -0.071847  0.000000
  -0.071847  -0.050341  0.000000
  0.000000  0.000000  0.000000

  0.138516  -0.019175  0.000000
  -0.019175  -0.046780  0.000000
  0.000000  0.000000  0.000000

  0.138516  -0.047820  0.000000
  -0.047820  -0.043473  0.000000
  0.000000  0.000000  0.000000

  0.088267  -0.049182  0.000000
  -0.049182  -0.029423  0.000000
  0.000000  0.000000  0.000000

  0.088267  -0.067620  0.000000
  -0.067620  -0.027725  0.000000
  0.000000  0.000000  0.000000

  0.071169  -0.046848  0.000000
  -0.046848  -0.023692  0.000000
  0.000000  0.000000  0.000000

  0.071672  -0.066624  0.000000
  -0.066624  -0.018979  0.000000
  0.000000  0.000000  0.000000

  0.114676  -0.046509  0.000000
  -0.046509  -0.035321  0.000000
  0.000000  0.000000  0.000000

  0.114676  -0.017426  0.000000
  -0.017426  -0.038747  0.000000
  0.000000  0.000000  0.000000

  0.023396  -0.068677  0.000000
  -0.068677  -0.006453  0.000000
  0.000000  0.000000  0.000000

  0.023460  -0.073819  0.000000
  -0.073819  -0.003852  0.000000
  0.000000  0.000000  0.000000

  0.014747  -0.067767  0.000000
  -0.067767  -0.002343  0.000000
  0.000000  0.000000  0.000000

  -0.035613  -0.075374  0.000000
  -0.075374  0.013022  0.000000
  0.000000  0.000000  0.000000

  -0.029282  -0.079152  0.000000
  -0.079152  0.017633  0.000000
  0.000000  0.000000  0.000000

  0.030916  -0.067014  0.000000
  -0.067014  -0.009284  0.000000
  0.000000  0.000000  0.000000

  -0.211422  -0.021794  0.000000
  -0.021794  0.071411  0.000000
  0.000000  0.000000  0.000000

  -0.211422  -0.050106  0.000000
  -0.050106  0.069530  0.000000
  0.000000  0.000000  0.000000

  -0.119763  -0.053786  0.000000
  -0.053786  0.040419  0.000000
  0.000000  0.000000  0.000000

  -0.255650  -0.028515  0.000000
  -0.028515  0.086123  0.000000
  0.000000  0.000000  0.000000

  -0.255650  -0.055937  0.000000
  -0.055937  0.075458  0.000000
  0.000000  0.000000  0.000000

  -0.160338  -0.035975  0.000000
  -0.035975  0.028249  0.000000
  0.000000  0.000000  0.000000

  0.251579  -0.032975  0.000000
  -0.032975  -0.051985  0.000000
  0.000000  0.000000  0.000000

  0.064758  -0.011350  0.000000
  -0.011350  -0.022240  0.000000
  0.000000  0.000000  0.000000

  0.064758  -0.046770  0.000000
  -0.046770  -0.023284  0.000000
  0.000000  0.000000  0.000000

  0.037255  -0.043454  0.000000
  -0.043454  -0.011073  0.000000
  0.000000  0.000000  0.000000

  0.037255  -0.067538  0.000000
  -0.067538  -0.013218  0.000000
  0.000000  0.000000  0.000000

  0.018832  -0.045078  0.000000
  -0.045078  -0.010941  0.000000
  0.000000  0.000000  0.000000

  0.010832  -0.068182  0.000000
  -0.068182  0.000021  0.000000
  0.000000  0.000000  0.000000

  0.054611  -0.065622  0.000000
  -0.065622  -0.016260  0.000000
  0.000000  0.000000  0.000000

  0.011029  -0.068397  0.000000
  -0.068397  -0.005316  0.000000
  0.000000  0.000000  0.000000

  0.014414  -0.063213  0.000000
  -0.063213  0.001173  0.000000
  0.000000  0.000000  0.000000

  0.007713  -0.063864  0.000000
  -0.063864  -0.004082  0.000000
  0.000000  0.000000  0.000000

  -0.187733  -0.022647  0.000000
  -0.022647  0.063374  0.000000
  0.000000  0.000000  0.000000

  -0.187733  -0.049665  0.000000
  -0.049665  0.064115  0.000000
  0.000000  0.000000  0.000000

  -0.108288  -0.054762  0.000000
  -0.054762  0.038443  0.000000
  0.000000  0.000000  0.000000

  -0.160574  -0.053784  0.000000
  -0.053784  0.050939  0.000000
  0.000000  0.000000  0.000000

  -0.108288  -0.056020  0.000000
  -0.056020  0.037926  0.000000
  0.000000  0.000000  0.000000

  -0.160574  -0.021949  0.000000
  -0.021949  0.054209  0.000000
  0.000000  0.000000  0.000000

  -0.093464  -0.083881  0.000000
  -0.083881  0.039805  0.000000
  0.000000  0.000000  0.000000

  -0.030143  -0.019803  0.000000
  -0.019803  0.009900  0.000000
  0.000000  0.000000  0.000000

  -0.030143  -0.044344  0.000000
  -0.044344  -0.001288  0.000000
  0.000000  0.000000  0.000000

  -0.007965  -0.036760  0.000000
  -0.036760  0.000563  0.000000
  0.000000  0.000000  0.000000

  0.040666  -0.017910  0.000000
  -0.017910  -0.015199  0.000000
  0.000000  0.000000  0.000000

  0.040666  -0.065724  0.000000
  -0.065724  -0.043829  0.000000
  0.000000  0.000000  0.000000

  0.020613  -0.041842  0.000000
  -0.041842  -0.063374  0.000000
  0.000000  0.000000  0.000000

  0.188010  -0.020723  0.000000
  -0.020723  -0.063485  0.000000
  0.000000  0.000000  0.000000

  0.188010  -0.050979  0.000000
  -0.050979  -0.061842  0.000000
  0.000000  0.000000  0.000000

  0.119098  -0.049409  0.000000
  -0.049409  -0.041211  0.000000
  0.000000  0.000000  0.000000

  0.119543  -0.066921  0.000000
  -0.066921  -0.037235  0.000000
  0.000000  0.000000  0.000000

  0.041818  -0.066927  0.000000
  -0.066927  -0.013414  0.000000
  0.000000  0.000000  0.000000

  0.035450  -0.068093  0.000000
  -0.068093  -0.013197  0.000000
  0.000000  0.000000  0.000000

  0.035518  -0.073556  0.000000
  -0.073556  -0.008328  0.000000
  0.000000  0.000000  0.000000

  -0.042510  -0.073523  0.000000
  -0.073523  0.015193  0.000000
  0.000000  0.000000  0.000000

  -0.038858  -0.072846  0.000000
  -0.072846  0.012002  0.000000
  0.000000  0.000000  0.000000

  -0.038817  -0.084873  0.000000
  -0.084873  0.026374  0.000000
  0.000000  0.000000  0.000000

  -0.119612  -0.050846  0.000000
  -0.050846  0.032816  0.000000
  0.000000  0.000000  0.000000

  0.104448  -0.068186  0.000000
  -0.068186  -0.034672  0.000000
  0.000000  0.000000  0.000000

  -0.251396  -0.033175  0.000000
  -0.033175  0.051888  0.000000
  0.000000  0.000000  0.000000

  0.053890  -0.006941  0.000000
  -0.006941  -0.131905  0.000000
  0.000000  0.000000  0.000000

  0.148593  -0.064489  0.000000
  -0.064489  -0.049633  0.000000
  0.000000  0.000000  0.000000

  -0.251357  -0.031992  0.000000
  -0.031992  0.072410  0.000000
  0.000000  0.000000  0.000000

  0.022226  -0.074429  0.000000
  -0.074429  -0.052378  0.000000
  0.000000  0.000000  0.000000

  -0.159210  -0.059111  0.000000
  -0.059111  0.063731  0.000000
  0.000000  0.000000  0.000000

  -0.004084  -0.025605  0.000000
  -0.025605  -0.018652  0.000000
  0.000000  0.000000  0.000000

  -0.010407  -0.048932  0.000000
  -0.048932  -0.029608  0.000000
  0.000000  0.000000  0.000000

  0.043728  -0.058440  0.000000
  -0.058440  -0.094981  0.000000
  0.000000  0.000000  0.000000

  0.030735  -0.074622  0.000000
  -0.074622  -0.011731  0.000000
  0.000000  0.000000  0.000000

  -0.027321  -0.066649  0.000000
  -0.066649  -0.007774  0.000000
  0.000000  0.000000  0.000000

  -0.002870  -0.061787  0.000000
  -0.061787  -0.009910  0.000000
  0.000000  0.000000  0.000000

  -0.002828  -0.063814  0.000000
  -0.063814  -0.042749  0.000000
  0.000000  0.000000  0.000000

  0.017103  -0.048565  0.000000
  -0.048565  -0.035862  0.000000
  0.000000  0.000000  0.000000

  -0.023681  -0.083036  0.000000
  -0.083036  0.003492  0.000000
  0.000000  0.000000  0.000000

  0.000269  -0.084483  0.000000
  -0.084483  -0.005091  0.000000
  0.000000  0.000000  0.000000

  0.065308  -0.064569  0.000000
  -0.064569  0.000000  0.000000
  0.000000  0.000000  0.000000

  0.135050  -0.068495  0.000000
  -0.068495  -0.046368  0.000000
  0.000000  0.000000  0.000000

  0.050331  -0.063524  0.000000
  -0.063524  -0.014740  0.000000
  0.000000  0.000000  0.000000

  0.050159  -0.074338  0.000000
  -0.074338  -0.020619  0.000000
  0.000000  0.000000  0.000000

  -0.017610  -0.071138  0.000000
  -0.071138  -0.011797  0.000000
  0.000000  0.000000  0.000000

  0.004040  -0.081218  0.000000
  -0.081218  -0.011888  0.000000
  0.000000  0.000000  0.000000

  -0.063407  -0.074156  0.000000
  -0.074156  0.024118  0.000000
  0.000000  0.000000  0.000000

  -0.029169  -0.067098  0.000000
  -0.067098  0.005782  0.000000
  0.000000  0.000000  0.000000

  0.065335  -0.042099  0.000000
  -0.042099  -0.001202  0.000000
  0.000000  0.000000  0.000000

  0.052772  -0.090349  0.000000
  -0.090349  -0.030214  0.000000
  0.000000  0.000000  0.000000

  -0.006223  -0.005215  0.000000
  -0.005215  0.010050  0.000000
  0.000000  0.000000  0.000000

  0.041621  -0.076276  0.000000
  -0.076276  -0.013352  0.000000
  0.000000  0.000000  0.000000

  -0.048084  -0.075662  0.000000
  -0.075662  0.014574  0.000000
  0.000000  0.000000  0.000000

  -0.047980  -0.090483  0.000000
  -0.090483  0.029790  0.000000
  0.000000  0.000000  0.000000

  -0.143802  -0.037829  0.000000
  -0.037829  0.037718  0.000000
  0.000000  0.000000  0.000000

  -0.035372  -0.059468  0.000000
  -0.059468  0.020749  0.000000
  0.000000  0.000000  0.000000

  -0.074647  -0.085936  0.000000
  -0.085936  0.023096  0.000000
  0.000000  0.000000  0.000000

  -0.042981  -0.089083  0.000000
  -0.089083  0.026071  0.000000
  0.000000  0.000000  0.000000

  -0.132684  -0.047094  0.000000
  -0.047094  0.034625  0.000000
  0.000000  0.000000  0.000000

  0.019560  -0.075696  0.000000
  -0.075696  -0.022688  0.000000
  0.000000  0.000000  0.000000

  0.003586  -0.063078  0.000000
  -0.063078  -0.031785  0.000000
  0.000000  0.000000  0.000000

  -0.047000  -0.070377  0.000000
  -0.070377  -0.006378  0.000000
  0.000000  0.000000  0.000000

  0.010265  -0.035933  0.000000
  -0.035933  -0.059191  0.000000
  0.000000  0.000000  0.000000

  0.034104  -0.049485  0.000000
  -0.049485  -0.082769  0.000000
  0.000000  0.000000  0.000000

  -0.103545  -0.007980  0.000000
  -0.007980  0.008209  0.000000
  0.000000  0.000000  0.000000

  -0.046929  -0.055505  0.000000
  -0.055505  0.031518  0.000000
  0.000000  0.000000  0.000000

  -0.147093  -0.072368  0.000000
  -0.072368  0.000000  0.000000
  0.000000  0.000000  0.000000

  -0.047429  -0.069120  0.000000
  -0.069120  0.000000  0.000000
  0.000000  0.000000  0.000000

  0.008542  -0.031380  0.000000
  -0.031380  -0.021934  0.000000
  0.000000  0.000000  0.000000

  -0.000126  -0.022672  0.000000
  -0.022672  -0.018654  0.000000
  0.000000  0.000000  0.000000

  0.107946  -0.009833  0.000000
  -0.009833  -0.016784  0.000000
  0.000000  0.000000  0.000000

  0.151745  -0.070841  0.000000
  -0.070841  0.000000  0.000000
  0.000000  0.000000  0.000000

  0.057687  -0.033072  0.000000
  -0.033072  -0.185068  0.000000
  0.000000  0.000000  0.000000

  0.029465  -0.039762  0.000000
  -0.039762  -0.102611  0.000000
  0.000000  0.000000  0.000000
POINT_DATA 105
VECTORS displacements double
  0.000000  0.000000  0.000000
  -0.302939  -0.197563  0.000000
  0.000000  0.000000  0.000000
  -0.305808  -0.239558  0.000000
  -0.106303  -0.104600  0.000000
  -0.612650  -0.437130  0.000000
  0.000000  0.000000  0.000000
  -0.229561  -0.316257  0.000000
  -0.502971  -0.515367  0.000000
  -0.049053  -0.142974  0.000000
  -0.885943  -0.750697  0.000000
  0.000000  0.000000  0.000000
  -0.341178  -0.642898  0.000000
  -0.684390  -0.875969  0.000000
  0.055609  -0.109960  0.000000
  -0.107609  -0.597638  0.000000
  -1.130029  -1.144910  0.000000
  0.000000  0.000000  0.000000
  0.090465  -0.430788  0.000000
  -0.451174  -1.063266  0.000000
  -0.847442  -1.314901  0.000000
  0.107384  -0.100263  0.000000
  -0.144199  -1.005650  0.000000
  0.227261  -0.312491  0.000000
  0.128418  -0.798134  0.000000
  -1.346289  -1.613630  0.000000
  0.000000  0.000000  0.000000
  0.339647  -0.631744  0.000000
  -0.556307  -1.559243  0.000000
  0.305996  -0.238856  0.000000
  -0.992226  -1.824545  0.000000
  -0.183731  -1.498826  0.000000
  0.158037  -1.253975  0.000000
  0.502269  -0.517245  0.000000
  0.443827  -1.045155  0.000000
  -1.533630  -2.145901  0.000000
  -0.629311  -2.038829  0.000000
  0.000000  0.000000  0.000000
  0.302906  -0.197166  0.000000
  0.684140  -0.875722  0.000000
  0.187045  -1.749487  0.000000
  -0.212464  -2.029225  0.000000
  0.612820  -0.437451  0.000000
  -1.116064  -2.392144  0.000000
  0.537360  -1.503535  0.000000
  0.884575  -0.751614  0.000000
  0.847620  -1.310994  0.000000
  -1.692943  -2.732726  0.000000
  -0.691611  -2.645783  0.000000
  0.205962  -2.341801  0.000000
  1.128060  -1.142947  0.000000
  0.615388  -2.062037  0.000000
  -0.244703  -2.654485  0.000000
  -1.221300  -3.009476  0.000000
  0.992617  -1.815883  0.000000
  -1.824318  -3.365860  0.000000
  1.344967  -1.607422  0.000000
  -0.744884  -3.314495  0.000000
  0.683462  -2.659982  0.000000
  0.227135  -2.965461  0.000000
  1.118435  -2.381394  0.000000
  -1.305586  -3.671111  0.000000
  1.535412  -2.136804  0.000000
  -0.281586  -3.622353  0.000000
  -1.924822  -4.036496  0.000000
  0.743461  -3.282487  0.000000
  -0.802480  -4.021995  0.000000
  1.225262  -2.998807  0.000000
  0.259893  -3.656644  0.000000
  1.699928  -2.722511  0.000000
  -1.369829  -4.363025  0.000000
  -0.279096  -4.346717  0.000000
  -1.993568  -4.729558  0.000000
  0.779868  -3.992402  0.000000
  1.313702  -3.660717  0.000000
  1.839958  -3.356607  0.000000
  -0.829829  -4.707396  0.000000
  0.361147  -4.356316  0.000000
  -1.412549  -5.070391  0.000000
  -0.299880  -5.099147  0.000000
  1.383238  -4.361415  0.000000
  0.808600  -4.715074  0.000000
  1.957736  -4.032230  0.000000
  -2.031825  -5.430730  0.000000
  0.249730  -5.104317  0.000000
  -0.859179  -5.449464  0.000000
  -1.435796  -5.777350  0.000000
  1.433180  -5.101006  0.000000
  2.056897  -4.746614  0.000000
  0.832069  -5.498335  0.000000
  -2.044797  -6.122026  0.000000
  0.261041  -5.875630  0.000000
  -0.413193  -6.054779  0.000000
  -0.945081  -6.185900  0.000000
  2.141565  -5.510894  0.000000
  1.464542  -5.899722  0.000000
  0.866431  -6.291115  0.000000
  -2.047189  -6.803612  0.000000
  -1.348176  -6.806543  0.000000
  -0.671462  -6.821526  0.000000
  -0.006189  -6.869067  0.000000
  2.203341  -6.396096  0.000000
  0.680308  -6.951484  0.000000
  1.412500  -7.100127  0.000000
  2.276306  -7.276882  0.000000

CELL_DATA 170
TENSORS stress double
  5037.215248  -5246.026964  0.000000
  -5246.026964  -44536.505281  0.000000
  0.000000  0.000000  0.000000


  59142.013971  -3224.788546  0.000000
  -3224.788546  237.426425  0.000000
  0.000000  0.000000  0.000000


  -66599.324343  -3473.194407  0.000000
  -3473.194407  -404.685907  0.000000
  0.000000  0.000000  0.000000


  -4083.290378  -2103.942994  0.000000
  -2103.942994  -1654.530886  0.000000
  0.000000  0.000000  0.000000


  32244.440698  -2478.062222  0.000000
  -2478.062222  522.195746  0.000000
  0.000000  0.000000  0.000000


  92766.898361  -20137.832584  0.000000
  -20137.832584  30891.377154  0.000000
  0.000000  0.000000  0.000000


  -35714.454280  -3574.662087  0.000000
  -3574.662087  175.732664  0.000000
  0.000000  0.000000  0.000000


  22779.884346  -2334.636267  0.000000
  -2334.636267  -824.914793  0.000000
  0.000000  0.000000  0.000000


  74452.472473  -4070.072090  0.000000
  -4070.072090  1366.075893  0.000000
  0.000000  0.000000  0.000000


  -51105.506676  -3459.574545  0.000000
  -3459.574545  -280.244650  0.000000
  0.000000  0.000000  0.000000


  44904.853135  -3061.865770  0.000000
  -3061.865770  324.267298  0.000000
  0.000000  0.000000  0.000000


  -86020.093751  -7188.610692  0.000000
  -7188.610692  -5066.172541  0.000000
  0.000000  0.000000  0.000000


  -18782.809118  -3780.209921  0.000000
  -3780.209921  -190.478229  0.000000
  0.000000  0.000000  0.000000


  12815.019147  -9925.983942  0.000000
  -9925.983942  -12031.688394  0.000000
  0.000000  0.000000  0.000000


  66446.406046  -3340.327297  0.000000
  -3340.327297  437.197364  0.000000
  0.000000  0.000000  0.000000


  -58923.445003  -3451.212164  0.000000
  -3451.212164  -110.698480  0.000000
  0.000000  0.000000  0.000000


  -1019.577647  -1061.843015  0.000000
  -1061.843015  -1105.860444  0.000000
  0.000000  0.000000  0.000000


  38258.808326  -2837.298790  0.000000
  -2837.298790  388.018553  0.000000
  0.000000  0.000000  0.000000


  -92776.974536  -20178.370153  0.000000
  -20178.370153  -30894.732521  0.000000
  0.000000  0.000000  0.000000


  -27366.667775  -3806.230917  0.000000
  -3806.230917  0.449719  0.000000
  0.000000  0.000000  0.000000


  27189.137006  -2011.375211  0.000000
  -2011.375211  563.338781  0.000000
  0.000000  0.000000  0.000000


  86006.931761  -7275.444522  0.000000
  -7275.444522  4860.582109  0.000000
  0.000000  0.000000  0.000000


  -43435.800719  -3404.794122  0.000000
  -3404.794122  -166.584412  0.000000
  0.000000  0.000000  0.000000


  51941.538781  -3182.783451  0.000000
  -3182.783451  252.612422  0.000000
  0.000000  0.000000  0.000000


  -74780.629614  -4020.806762  0.000000
  -4020.806762  -1093.807953  0.000000
  0.000000  0.000000  0.000000


  -10609.269115  -3381.810244  0.000000
  -3381.810244  -576.592012  0.000000
  0.000000  0.000000  0.000000


  44437.178173  -3279.334043  0.000000
  -3279.334043  -233.512811  0.000000
  0.000000  0.000000  0.000000


  44594.685039  -7841.626546  0.000000
  -7841.626546  239.480781  0.000000
  0.000000  0.000000  0.000000


  34199.986329  -3199.031875  0.000000
  -3199.031875  -179.814322  0.000000
  0.000000  0.000000  0.000000


  34377.612996  -7718.181070  0.000000
  -7718.181070  353.599092  0.000000
  0.000000  0.000000  0.000000


  18893.210492  -2296.703469  0.000000
  -2296.703469  -123.515004  0.000000
  0.000000  0.000000  0.000000


  19177.042155  -6919.973568  0.000000
  -6919.973568  728.832334  0.000000
  0.000000  0.000000  0.000000


  28550.156954  -7575.651814  0.000000
  -7575.651814  264.165112  0.000000
  0.000000  0.000000  0.000000


  22074.529358  -7661.252479  0.000000
  -7661.252479  129.274672  0.000000
  0.000000  0.000000  0.000000


  11729.164003  -6964.070992  0.000000
  -6964.070992  463.054606  0.000000
  0.000000  0.000000  0.000000


  -22910.879968  -3808.728113  0.000000
  -3808.728113  119.937020  0.000000
  0.000000  0.000000  0.000000


  -22884.421643  -8619.789748  0.000000
  -8619.789748  199.391450  0.000000
  0.000000  0.000000  0.000000


  -13181.423321  -8813.799158  0.000000
  -8813.799158  129.599593  0.000000
  0.000000  0.000000  0.000000


  -15746.610905  -8545.944466  0.000000
  -8545.944466  262.003420  0.000000
  0.000000  0.000000  0.000000


  49441.244904  -3487.038335  0.000000
  -3487.038335  -246.078776  0.000000
  0.000000  0.000000  0.000000


  49690.438962  -8119.242498  0.000000
  -8119.242498  502.251731  0.000000
  0.000000  0.000000  0.000000


  31849.988534  -6875.899312  0.000000
  -6875.899312  1287.413938  0.000000
  0.000000  0.000000  0.000000


  -49314.599888  -3602.663512  0.000000
  -3602.663512  257.306603  0.000000
  0.000000  0.000000  0.000000


  -49570.474488  -8122.876262  0.000000
  -8122.876262  -511.085587  0.000000
  0.000000  0.000000  0.000000


  -27941.226238  -8245.678095  0.000000
  -8245.678095  -153.914509  0.000000
  0.000000  0.000000  0.000000


  -30447.473003  -7587.495299  0.000000
  -7587.495299  -901.809200  0.000000
  0.000000  0.000000  0.000000


  -1648.255495  -1193.509133  0.000000
  -1193.509133  -85.160345  0.000000
  0.000000  0.000000  0.000000


  -11624.145915  -3761.680203  0.000000
  -3761.680203  25.635938  0.000000
  0.000000  0.000000  0.000000


  -12026.886594  -8425.389258  0.000000
  -8425.389258  -1183.795530  0.000000
  0.000000  0.000000  0.000000


  -5856.544510  -8156.596263  0.000000
  -8156.596263  -579.328788  0.000000
  0.000000  0.000000  0.000000


  -9872.907422  -9100.659342  0.000000
  -9100.659342  -10.781529  0.000000
  0.000000  0.000000  0.000000


  -9887.447571  -11535.810196  0.000000
  -11535.810196  -302.651098  0.000000
  0.000000  0.000000  0.000000


  -17458.836058  -8715.287672  0.000000
  -8715.287672  102.448837  0.000000
  0.000000  0.000000  0.000000


  -17469.096730  -3918.076950  0.000000
  -3918.076950  71.636008  0.000000
  0.000000  0.000000  0.000000


  -4090.208096  -12124.188927  0.000000
  -12124.188927  -1099.096701  0.000000
  0.000000  0.000000  0.000000


  -5083.724612  -11587.769684  0.000000
  -11587.769684  102.366903  0.000000
  0.000000  0.000000  0.000000


  -28606.109180  -3446.688534  0.000000
  -3446.688534  148.025552  0.000000
  0.000000  0.000000  0.000000


  -28379.699365  -8484.329276  0.000000
  -8484.329276  827.934908  0.000000
  0.000000  0.000000  0.000000


  -20057.353534  -7502.184417  0.000000
  -7502.184417  -157.845572  0.000000
  0.000000  0.000000  0.000000


  53366.505844  -4707.107989  0.000000
  -4707.107989  -233.805482  0.000000
  0.000000  0.000000  0.000000


  54416.322265  -8906.452045  0.000000
  -8906.452045  2918.796382  0.000000
  0.000000  0.000000  0.000000


  35008.311764  -5682.101569  0.000000
  -5682.101569  6102.454190  0.000000
  0.000000  0.000000  0.000000


  53508.531666  -5262.876063  0.000000
  -5262.876063  1842.757462  0.000000
  0.000000  0.000000  0.000000


  32743.913481  -11318.703287  0.000000
  -11318.703287  332.192059  0.000000
  0.000000  0.000000  0.000000


  29036.995563  -3020.844790  0.000000
  -3020.844790  -154.404777  0.000000
  0.000000  0.000000  0.000000


  29297.069951  -7533.578656  0.000000
  -7533.578656  626.599393  0.000000
  0.000000  0.000000  0.000000


  18533.698432  -7748.129960  0.000000
  -7748.129960  -7.032129  0.000000
  0.000000  0.000000  0.000000


  18667.206710  -10652.754001  0.000000
  -10652.754001  393.893632  0.000000
  0.000000  0.000000  0.000000


  14946.066445  -7380.421711  0.000000
  -7380.421711  1.665993  0.000000
  0.000000  0.000000  0.000000


  15435.444496  -10495.850598  0.000000
  -10495.850598  1154.385941  0.000000
  0.000000  0.000000  0.000000


  24307.278326  -7327.055792  0.000000
  -7327.055792  676.941870  0.000000
  0.000000  0.000000  0.000000


  24037.770968  -2745.283863  0.000000
  -2745.283863  -132.389535  0.000000
  0.000000  0.000000  0.000000


  5018.303054  -10819.259561  0.000000
  -10819.259561  316.024522  0.000000
  0.000000  0.000000  0.000000


  5238.024358  -11629.460269  0.000000
  -11629.460269  935.380314  0.000000
  0.000000  0.000000  0.000000


  3298.738628  -10676.041063  0.000000
  -10676.041063  606.388387  0.000000
  0.000000  0.000000  0.000000


  -7387.227963  -11874.367308  0.000000
  -11874.367308  274.641304  0.000000
  0.000000  0.000000  0.000000


  -5529.197382  -12469.580721  0.000000
  -12469.580721  1861.677624  0.000000
  0.000000  0.000000  0.000000


  6571.750503  -10557.286083  0.000000
  -10557.286083  238.708513  0.000000
  0.000000  0.000000  0.000000


  -44319.283734  -3433.413343  0.000000
  -3433.413343  237.939355  0.000000
  0.000000  0.000000  0.000000


  -44467.178333  -7893.628887  0.000000
  -7893.628887  -206.188571  0.000000
  0.000000  0.000000  0.000000


  -25107.929405  -8473.390205  0.000000
  -8473.390205  127.141333  0.000000
  0.000000  0.000000  0.000000


  -53608.594121  -4492.183915  0.000000
  -4492.183915  234.216124  0.000000
  0.000000  0.000000  0.000000


  -54447.439315  -8812.270380  0.000000
  -8812.270380  -2284.838513  0.000000
  0.000000  0.000000  0.000000


  -35648.530352  -5667.422056  0.000000
  -5667.422056  -5938.614693  0.000000
  0.000000  0.000000  0.000000


  55331.957530  -5194.929521  0.000000
  -5194.929521  7508.690854  0.000000
  0.000000  0.000000  0.000000


  13546.005192  -1788.038202  0.000000
  -1788.038202  -159.613333  0.000000
  0.000000  0.000000  0.000000


  13463.913474  -7368.137831  0.000000
  -7368.137831  -406.135007  0.000000
  0.000000  0.000000  0.000000


  7928.460283  -6845.725372  0.000000
  -6845.725372  314.773373  0.000000
  0.000000  0.000000  0.000000


  7759.793498  -10639.963655  0.000000
  -10639.963655  -191.733489  0.000000
  0.000000  0.000000  0.000000


  3587.343500  -7101.529938  0.000000
  -7101.529938  -1102.936787  0.000000
  0.000000  0.000000  0.000000


  2560.068473  -10741.382610  0.000000
  -10741.382610  856.945373  0.000000
  0.000000  0.000000  0.000000


  11619.656243  -10337.975123  0.000000
  -10337.975123  454.692034  0.000000
  0.000000  0.000000  0.000000


  2186.828920  -10775.214645  0.000000
  -10775.214645  -388.180646  0.000000
  0.000000  0.000000  0.000000


  3496.692342  -9958.483975  0.000000
  -9958.483975  1410.749639  0.000000
  0.000000  0.000000  0.000000


  1500.731485  -10061.048796  0.000000
  -10061.048796  -357.499874  0.000000
  0.000000  0.000000  0.000000


  -39356.314401  -3567.795919  0.000000
  -3567.795919  202.983850  0.000000
  0.000000  0.000000  0.000000


  -39298.075027  -7824.206966  0.000000
  -7824.206966  377.876864  0.000000
  0.000000  0.000000  0.000000


  -22553.188151  -8627.108393  0.000000
  -8627.108393  562.723722  0.000000
  0.000000  0.000000  0.000000


  -33919.698670  -8473.116414  0.000000
  -8473.116414  -598.060723  0.000000
  0.000000  0.000000  0.000000


  -22593.781337  -8825.280349  0.000000
  -8825.280349  440.822263  0.000000
  0.000000  0.000000  0.000000


  -33662.534874  -3457.841446  0.000000
  -3457.841446  174.202927  0.000000
  0.000000  0.000000  0.000000


  -18944.672447  -13214.575355  0.000000
  -13214.575355  2050.504723  0.000000
  0.000000  0.000000  0.000000


  -6340.747487  -3119.689949  0.000000
  -3119.689949  -32.401503  0.000000
  0.000000  0.000000  0.000000


  -7220.750928  -6985.905945  0.000000
  -6985.905945  -2675.054479  0.000000
  0.000000  0.000000  0.000000


  -1836.919931  -5791.203138  0.000000
  -5791.203138  -493.489274  0.000000
  0.000000  0.000000  0.000000


  8409.498423  -2821.555651  0.000000
  -2821.555651  -391.331580  0.000000
  0.000000  0.000000  0.000000


  6157.668934  -10354.051629  0.000000
  -10354.051629  -7153.582298  0.000000
  0.000000  0.000000  0.000000


  -115.820911  -6591.701383  0.000000
  -6591.701383  -13347.061466  0.000000
  0.000000  0.000000  0.000000


  39413.086630  -3264.709659  0.000000
  -3264.709659  -207.284445  0.000000
  0.000000  0.000000  0.000000


  39542.318269  -8031.147128  0.000000
  -8031.147128  180.798555  0.000000
  0.000000  0.000000  0.000000


  24888.605906  -7783.832408  0.000000
  -7783.832408  -366.310307  0.000000
  0.000000  0.000000  0.000000


  25306.403149  -10542.644021  0.000000
  -10542.644021  607.708909  0.000000
  0.000000  0.000000  0.000000


  8822.103395  -10543.574914  0.000000
  -10543.574914  120.855637  0.000000
  0.000000  0.000000  0.000000


  7335.078754  -10727.392298  0.000000
  -10727.392298  -328.717621  0.000000
  0.000000  0.000000  0.000000


  7734.096619  -11587.983313  0.000000
  -11587.983313  826.599169  0.000000
  0.000000  0.000000  0.000000


  -8845.440375  -11582.693614  0.000000
  -11582.693614  244.963035  0.000000
  0.000000  0.000000  0.000000


  -8233.908127  -11476.066076  0.000000
  -11476.066076  -221.522874  0.000000
  0.000000  0.000000  0.000000


  -7093.800130  -13370.762124  0.000000
  -13370.762124  3176.235834  0.000000
  0.000000  0.000000  0.000000


  -25670.297391  -8010.231729  0.000000
  -8010.231729  -1656.753130  0.000000
  0.000000  0.000000  0.000000


  21942.600765  -10741.911101  0.000000
  -10741.911101  25.694274  0.000000
  0.000000  0.000000  0.000000


  -55296.361057  -5226.383554  0.000000
  -5226.383554  -7517.309473  0.000000
  0.000000  0.000000  0.000000


  2353.919370  -1093.422597  0.000000
  -1093.422597  -26916.155173  0.000000
  0.000000  0.000000  0.000000


  31192.501317  -10159.485957  0.000000
  -10159.485957  -35.830290  0.000000
  0.000000  0.000000  0.000000


  -53673.048131  -5040.044140  0.000000
  -5040.044140  -2667.021502  0.000000
  0.000000  0.000000  0.000000


  1129.956588  -11725.447736  0.000000
  -11725.447736  -10623.017901  0.000000
  0.000000  0.000000  0.000000


  -32591.416980  -9312.347688  0.000000
  -9312.347688  2530.597824  0.000000
  0.000000  0.000000  0.000000


  -2431.565618  -4033.808990  0.000000
  -4033.808990  -4726.698982  0.000000
  0.000000  0.000000  0.000000


  -4786.653889  -7708.760796  0.000000
  -7708.760796  -7811.652903  0.000000
  0.000000  0.000000  0.000000


  2857.657253  -9206.527137  0.000000
  -9206.527137  -18994.431304  0.000000
  0.000000  0.000000  0.000000


  6336.781327  -11755.832351  0.000000
  -11755.832351  -353.275252  0.000000
  0.000000  0.000000  0.000000


  -7064.290996  -10499.910377  0.000000
  -10499.910377  -3984.879872  0.000000
  0.000000  0.000000  0.000000


  -1457.202671  -9733.840588  0.000000
  -9733.840588  -2566.318829  0.000000
  0.000000  0.000000  0.000000


  -4030.275164  -10053.240032  0.000000
  -10053.240032  -10319.274091  0.000000
  0.000000  0.000000  0.000000


  1219.091424  -7650.868939  0.000000
  -7650.868939  -7125.048561  0.000000
  0.000000  0.000000  0.000000


  -5318.524522  -13081.489764  0.000000
  -13081.489764  -1037.839938  0.000000
  0.000000  0.000000  0.000000


  -336.954141  -13309.351842  0.000000
  -13309.351842  -1181.406135  0.000000
  0.000000  0.000000  0.000000


  15425.240259  -10172.195059  0.000000
  -10172.195059  5136.605006  0.000000
  0.000000  0.000000  0.000000


  28250.776206  -10790.660585  0.000000
  -10790.660585  -329.696592  0.000000
  0.000000  0.000000  0.000000


  10728.328512  -10007.517498  0.000000
  -10007.517498  477.064988  0.000000
  0.000000  0.000000  0.000000


  10225.415616  -11711.139857  0.000000
  -11711.139857  -924.974823  0.000000
  0.000000  0.000000  0.000000


  -5087.137096  -11207.087715  0.000000
  -11207.087715  -4171.405603  0.000000
  0.000000  0.000000  0.000000


  19.250344  -12794.974899  0.000000
  -12794.974899  -2490.108303  0.000000
  0.000000  0.000000  0.000000


  -13079.163131  -11682.441546  0.000000
  -11682.441546  709.405657  0.000000
  0.000000  0.000000  0.000000


  -6434.756484  -10570.543723  0.000000
  -10570.543723  -928.499222  0.000000
  0.000000  0.000000  0.000000


  15336.951074  -6632.256504  0.000000
  -6632.256504  4854.829675  0.000000
  0.000000  0.000000  0.000000


  10087.946736  -14233.515397  0.000000
  -14233.515397  -2985.705645  0.000000
  0.000000  0.000000  0.000000


  -679.399486  -821.595983  0.000000
  -821.595983  1884.313423  0.000000
  0.000000  0.000000  0.000000


  8780.301657  -12016.434763  0.000000
  -12016.434763  119.968442  0.000000
  0.000000  0.000000  0.000000


  -10210.748310  -11919.668463  0.000000
  -11919.668463  -339.635258  0.000000
  0.000000  0.000000  0.000000


  -8989.411378  -14254.682127  0.000000
  -14254.682127  3262.433368  0.000000
  0.000000  0.000000  0.000000


  -30998.194395  -5959.598174  0.000000
  -5959.598174  -2401.554267  0.000000
  0.000000  0.000000  0.000000


  -6722.665667  -9368.490087  0.000000
  -9368.490087  2118.741550  0.000000
  0.000000  0.000000  0.000000


  -15814.373490  -13538.300835  0.000000
  -13538.300835  -415.974796  0.000000
  0.000000  0.000000  0.000000


  -8101.139195  -14034.095818  0.000000
  -14034.095818  2777.225307  0.000000
  0.000000  0.000000  0.000000


  -28615.343608  -7419.145189  0.000000
  -7419.145189  -2257.596416  0.000000
  0.000000  0.000000  0.000000


  2835.392407  -11925.128698  0.000000
  -11925.128698  -3820.271105  0.000000
  0.000000  0.000000  0.000000


  -1652.920323  -9937.302082  0.000000
  -9937.302082  -7225.365551  0.000000
  0.000000  0.000000  0.000000


  -11602.661980  -11087.089057  0.000000
  -11087.089057  -5203.054448  0.000000
  0.000000  0.000000  0.000000


  -2230.863318  -5660.818869  0.000000
  -5660.818869  -13172.966847  0.000000
  0.000000  0.000000  0.000000


  1545.233710  -7795.778757  0.000000
  -7795.778757  -16866.943108  0.000000
  0.000000  0.000000  0.000000


  -23810.744964  -1257.182012  0.000000
  -1257.182012  -6205.082977  0.000000
  0.000000  0.000000  0.000000


  -8605.207756  -8744.215968  0.000000
  -8744.215968  3753.209403  0.000000
  0.000000  0.000000  0.000000


  -34742.106275  -11400.873597  0.000000
  -11400.873597  -11569.121389  0.000000
  0.000000  0.000000  0.000000


  -11202.340756  -10889.153088  0.000000
  -10889.153088  -3730.379472  0.000000
  0.000000  0.000000  0.000000


  292.311122  -4943.660104  0.000000
  -4943.660104  -4508.886411  0.000000
  0.000000  0.000000  0.000000


  -1496.968983  -3571.789490  0.000000
  -3571.789490  -4415.857494  0.000000
  0.000000  0.000000  0.000000


  24175.806871  -1549.078302  0.000000
  -1549.078302  4525.883400  0.000000
  0.000000  0.000000  0.000000


  35840.748577  -11160.227115  0.000000
  -11160.227115  11934.969276  0.000000
  0.000000  0.000000  0.000000


  -930.701582  -5210.115319  0.000000
  -5210.115319  -39174.300456  0.000000
  0.000000  0.000000  0.000000


  -1111.131786  -6264.096985  0.000000
  -6264.096985  -21918.367695  0.000000
  0.000000  0.000000  0.000000

