# vtk DataFile Version 2.0
geometrically linear steady-state plane stress analysis
ASCII

DATASET UNSTRUCTURED_GRID
POINTS 126 double
  6.053640  -3.020430  0.000000
  5.097980  -3.055374  0.000000
  6.053640  -2.003830  0.000000
  4.687640  -2.224723  0.000000
  5.146846  -1.436191  0.000000
  4.146850  -3.104135  0.000000
  6.053640  -0.987230  0.000000
  4.098189  -1.462726  0.000000
  3.659012  -2.368433  0.000000
  4.843368  -0.539912  0.000000
  3.190275  -3.174124  0.000000
  6.053640  0.029380  0.000000
  3.119010  -1.531680  0.000000
  5.040138  0.313240  0.000000
  3.561356  -0.625502  0.000000
  2.695667  -2.447781  0.000000
  4.022677  0.269294  0.000000
  2.227927  -3.265284  0.000000
  6.053640  1.045980  0.000000
  2.562605  -0.706320  0.000000
  2.137612  -1.622500  0.000000
  4.587243  1.132980  0.000000
  3.005336  0.199929  0.000000
  1.729422  -2.547601  0.000000
  3.463846  1.095753  0.000000
  1.260603  -3.375742  0.000000
  6.053640  2.062580  0.000000
  1.565884  -0.805980  0.000000
  4.997693  2.028132  0.000000
  1.991997  0.110177  0.000000
  1.104205  -1.801330  0.000000
  0.842623  -2.680333  0.000000
  3.937890  1.980172  0.000000
  2.430749  1.016248  0.000000
  2.883583  1.912060  0.000000
  0.977695  0.000438  0.000000
  0.566772  -0.924658  0.000000
  0.288479  -3.504313  0.000000
  1.400611  0.916899  0.000000
  1.834477  1.823489  0.000000
  -0.213148  -2.268301  0.000000
  -0.032286  -0.124998  0.000000
  0.373535  0.799722  0.000000
  -0.430702  -1.058835  0.000000
  -0.691716  -3.645826  0.000000
  0.790325  1.716115  0.000000
  -1.123287  -2.783785  0.000000
  -1.101037  -1.822601  0.000000
  -0.650651  0.666514  0.000000
  -1.123351  -0.441749  0.000000
  -0.248973  1.591756  0.000000
  -1.673341  -3.800214  0.000000
  -1.931801  -2.398891  0.000000
  -2.000061  -1.236675  0.000000
  -1.488452  0.603048  0.000000
  -1.283196  1.452717  0.000000
  -2.159345  -0.154540  0.000000
  -2.760536  -2.960919  0.000000
  -2.660496  -3.968594  0.000000
  -2.830139  -1.975874  0.000000
  -2.929287  -0.827792  0.000000
  -2.312890  1.301354  0.000000
  -3.129056  0.156333  0.000000
  -3.330715  -4.542985  0.000000
  -3.553949  -3.577635  0.000000
  -3.652765  -2.571913  0.000000
  -3.745481  -1.568260  0.000000
  -3.338531  1.137044  0.000000
  -3.883579  -0.507449  0.000000
  -4.008081  -5.118856  0.000000
  -4.232993  -4.155634  0.000000
  -4.450630  -3.191189  0.000000
  -4.092605  0.475457  0.000000
  -4.549466  -2.186709  0.000000
  -4.633695  -1.175139  0.000000
  -4.232870  1.457031  0.000000
  -4.842606  -0.191757  0.000000
  -4.913684  -4.733033  0.000000
  -4.689341  -5.695177  0.000000
  -5.133941  -3.769621  0.000000
  -5.350007  -2.806796  0.000000
  -4.976883  0.790175  0.000000
  -5.450440  -1.804091  0.000000
  -5.590127  -0.860870  0.000000
  -5.120292  1.773835  0.000000
  -5.596179  -5.309527  0.000000
  -5.817339  -4.347145  0.000000
  -5.373129  -6.270908  0.000000
  -5.722220  0.121504  0.000000
  -6.035833  -3.384907  0.000000
  -6.252223  -2.423891  0.000000
  -5.860056  1.103736  0.000000
  -6.335262  -1.530640  0.000000
  -6.467234  -0.547787  0.000000
  -6.004432  2.088017  0.000000
  -6.561636  -5.027918  0.000000
  -6.407858  -5.894456  0.000000
  -6.781666  -4.066431  0.000000
  -6.602461  0.433931  0.000000
  -7.000111  -3.105636  0.000000
  -7.169035  -2.068273  0.000000
  -6.742173  1.415667  0.000000
  -7.273963  -1.164915  0.000000
  -7.408572  -0.183163  0.000000
  -6.887016  2.398507  0.000000
  -7.599819  -4.653137  0.000000
  -7.441149  -5.517817  0.000000
  -7.747153  -3.786077  0.000000
  -7.546110  0.797608  0.000000
  -7.944309  -2.719427  0.000000
  -8.095652  -1.724848  0.000000
  -8.178938  -0.723071  0.000000
  -7.728902  1.684408  0.000000
  -8.299776  0.260913  0.000000
  -8.592681  -4.378887  0.000000
  -8.474740  -5.141424  0.000000
  -8.734922  -3.358842  0.000000
  -8.889686  -2.358677  0.000000
  -8.573695  0.975593  0.000000
  -9.153362  -1.081992  0.000000
  -9.419360  0.268658  0.000000
  -9.509221  -4.764077  0.000000
  -9.698222  -3.679604  0.000000
  -9.886486  -2.596918  0.000000
  -10.075164  -1.516083  0.000000
  -10.265657  -0.436750  0.000000

CELLS  207  828
  3  87  78  85
  3  78  69  77
  3  69  63  70
  3  63  58  64
  3  67  75  72
  3  75  84  81
  3  84  94  91
  3  94  104  101
  3  85  78  77
  3  85  77  86
  3  77  69  70
  3  77  70  79
  3  70  63  64
  3  70  64  71
  3  64  58  57
  3  86  77  79
  3  86  79  89
  3  79  70  71
  3  79  71  80
  3  71  64  65
  3  89  79  80
  3  89  80  90
  3  86  89  97
  3  90  80  82
  3  89  90  99
  3  87  85  96
  3  85  86  95
  3  80  71  73
  3  72  75  81
  3  72  81  76
  3  81  84  91
  3  81  91  88
  3  91  94  101
  3  91  101  98
  3  101  104  112
  3  76  81  88
  3  76  88  83
  3  88  91  98
  3  88  98  93
  3  98  101  108
  3  83  88  93
  3  83  93  92
  3  76  83  74
  3  92  93  102
  3  83  92  82
  3  82  92  90
  3  83  82  74
  3  90  92  100
  3  100  92  102
  3  100  102  110
  3  90  100  99
  3  110  102  111
  3  100  110  109
  3  67  72  62
  3  72  76  68
  3  93  98  103
  3  96  85  95
  3  96  95  106
  3  106  95  105
  3  57  58  51
  3  97  89  99
  3  97  99  107
  3  73  71  65
  3  73  65  66
  3  107  99  109
  3  66  65  59
  3  65  64  57
  3  65  57  59
  3  59  57  52
  3  52  57  51
  3  59  52  53
  3  82  80  73
  3  82  73  74
  3  95  86  97
  3  95  97  105
  3  105  97  107
  3  105  114  115
  3  73  66  74
  3  74  66  68
  3  74  68  76
  3  111  102  103
  3  111  103  113
  3  103  102  93
  3  113  103  108
  3  113  108  118
  3  113  118  120
  3  111  113  120
  3  108  103  98
  3  110  111  119
  3  109  110  117
  3  100  109  99
  3  108  101  112
  3  108  112  118
  3  62  72  68
  3  62  68  60
  3  60  68  66
  3  62  60  56
  3  67  62  61
  3  106  105  115
  3  66  59  60
  3  59  53  60
  3  110  119  117
  3  109  117  116
  3  53  52  47
  3  119  111  120
  3  26  28  18
  3  39  45  38
  3  32  34  24
  3  50  55  48
  3  62  56  61
  3  28  32  21
  3  45  50  42
  3  56  60  53
  3  34  39  33
  3  55  61  54
  3  116  117  123
  3  48  55  54
  3  48  54  49
  3  54  61  56
  3  54  56  49
  3  48  49  41
  3  38  45  42
  3  38  42  35
  3  35  42  41
  3  41  42  48
  3  35  41  36
  3  48  42  50
  3  36  41  43
  3  35  36  27
  3  38  35  29
  3  47  52  46
  3  24  34  33
  3  24  33  22
  3  22  33  29
  3  29  33  38
  3  22  29  19
  3  38  33  39
  3  19  29  27
  3  19  27  20
  3  22  19  14
  3  27  29  35
  3  20  27  30
  3  19  20  12
  3  24  22  16
  3  21  32  24
  3  21  24  16
  3  21  16  13
  3  13  16  9
  3  21  13  18
  3  109  116  107
  3  53  47  49
  3  28  21  18
  3  41  49  43
  3  43  49  47
  3  47  46  40
  3  30  27  36
  3  30  36  40
  3  16  22  14
  3  16  14  9
  3  9  14  7
  3  40  44  37
  3  47  40  43
  3  36  43  40
  3  14  19  12
  3  14  12  7
  3  7  12  8
  3  8  12  15
  3  7  8  3
  3  15  12  20
  3  15  20  23
  3  23  20  30
  3  15  23  17
  3  17  23  25
  3  15  17  10
  3  25  23  31
  3  15  10  8
  3  8  10  5
  3  8  5  3
  3  3  5  1
  3  3  1  2
  3  31  23  30
  3  31  30  40
  3  25  31  37
  3  7  3  4
  3  4  3  2
  3  7  4  9
  3  9  4  6
  3  13  9  11
  3  46  52  51
  3  123  117  124
  3  1  0  2
  3  44  40  46
  3  44  46  51
  3  6  11  9
  3  2  6  4
  3  11  18  13
  3  31  40  37
  3  117  119  124
  3  107  116  114
  3  114  116  122
  3  107  114  105
  3  115  114  121
  3  122  116  123
  3  121  114  122
  3  124  119  125
  3  120  125  119
  3  49  56  53

CELL_TYPES 207
5
5
5
5
5
5
5
5
5
5
5
5
5
5
5
5
5
5
5
5
5
5
5
5
5
5
5
5
5
5
5
5
5
5
5
5
5
5
5
5
5
5
5
5
5
5
5
5
5
5
5
5
5
5
5
5
5
5
5
5
5
5
5
5
5
5
5
5
5
5
5
5
5
5
5
5
5
5
5
5
5
5
5
5
5
5
5
5
5
5
5
5
5
5
5
5
5
5
5
5
5
5
5
5
5
5
5
5
5
5
5
5
5
5
5
5
5
5
5
5
5
5
5
5
5
5
5
5
5
5
5
5
5
5
5
5
5
5
5
5
5
5
5
5
5
5
5
5
5
5
5
5
5
5
5
5
5
5
5
5
5
5
5
5
5
5
5
5
5
5
5
5
5
5
5
5
5
5
5
5
5
5
5
5
5
5
5
5
5
5
5
5
5
5
5
5
5
5
5
5
5
5
5
5
5
5
5

CELL_DATA 207
TENSORS strain double
  -0.001409  0.000289  0.000000
  0.000289  0.000394  0.000000
  0.000000  0.000000  0.000000

  -0.003878  -0.000284  0.000000
  -0.000284  0.001188  0.000000
  0.000000  0.000000  0.000000

  -0.008502  -0.001304  0.000000
  -0.001304  0.002234  0.000000
  0.000000  0.000000  0.000000

  -0.018568  -0.002256  0.000000
  -0.002256  0.004274  0.000000
  0.000000  0.000000  0.000000

  0.019998  -0.003448  0.000000
  -0.003448  -0.004325  0.000000
  0.000000  0.000000  0.000000

  0.009675  -0.002311  0.000000
  -0.002311  -0.002381  0.000000
  0.000000  0.000000  0.000000

  0.005063  -0.000930  0.000000
  -0.000930  -0.001876  0.000000
  0.000000  0.000000  0.000000

  0.002884  0.000733  0.000000
  0.000733  -0.003478  0.000000
  0.000000  0.000000  0.000000

  -0.002305  -0.000138  0.000000
  -0.000138  0.001199  0.000000
  0.000000  0.000000  0.000000

  -0.004149  0.001390  0.000000
  0.001390  0.001438  0.000000
  0.000000  0.000000  0.000000

  -0.004273  -0.000213  0.000000
  -0.000213  0.002338  0.000000
  0.000000  0.000000  0.000000

  -0.006966  0.002060  0.000000
  0.002060  0.002539  0.000000
  0.000000  0.000000  0.000000

  -0.007331  0.000339  0.000000
  0.000339  0.004518  0.000000
  0.000000  0.000000  0.000000

  -0.010563  0.003403  0.000000
  0.003403  0.003604  0.000000
  0.000000  0.000000  0.000000

  -0.010856  0.004092  0.000000
  0.004092  0.005567  0.000000
  0.000000  0.000000  0.000000

  -0.003523  0.002232  0.000000
  0.002232  0.002548  0.000000
  0.000000  0.000000  0.000000

  -0.004536  0.003451  0.000000
  0.003451  0.001363  0.000000
  0.000000  0.000000  0.000000

  -0.005145  0.003815  0.000000
  0.003815  0.003632  0.000000
  0.000000  0.000000  0.000000

  -0.006046  0.005064  0.000000
  0.005064  0.002011  0.000000
  0.000000  0.000000  0.000000

  -0.006280  0.006601  0.000000
  0.006601  0.003316  0.000000
  0.000000  0.000000  0.000000

  -0.002849  0.004952  0.000000
  0.004952  0.001990  0.000000
  0.000000  0.000000  0.000000

  -0.002661  0.005308  0.000000
  0.005308  0.000191  0.000000
  0.000000  0.000000  0.000000

  -0.002069  0.003168  0.000000
  0.003168  0.001326  0.000000
  0.000000  0.000000  0.000000

  -0.000771  0.006738  0.000000
  0.006738  0.000123  0.000000
  0.000000  0.000000  0.000000

  -0.001040  0.004793  0.000000
  0.004793  0.000132  0.000000
  0.000000  0.000000  0.000000

  -0.001118  0.000162  0.000000
  0.000162  0.000379  0.000000
  0.000000  0.000000  0.000000

  -0.002165  0.001323  0.000000
  0.001323  0.001425  0.000000
  0.000000  0.000000  0.000000

  -0.003117  0.007300  0.000000
  0.007300  0.001965  0.000000
  0.000000  0.000000  0.000000

  0.007613  0.000017  0.000000
  0.000017  -0.004557  0.000000
  0.000000  0.000000  0.000000

  0.011068  0.003116  0.000000
  0.003116  -0.004189  0.000000
  0.000000  0.000000  0.000000

  0.004431  -0.000222  0.000000
  -0.000222  -0.002524  0.000000
  0.000000  0.000000  0.000000

  0.007653  0.002160  0.000000
  0.002160  -0.003940  0.000000
  0.000000  0.000000  0.000000

  0.002585  0.000501  0.000000
  0.000501  -0.001975  0.000000
  0.000000  0.000000  0.000000

  0.005276  0.002101  0.000000
  0.002101  -0.004510  0.000000
  0.000000  0.000000  0.000000

  0.001792  0.000349  0.000000
  0.000349  -0.003449  0.000000
  0.000000  0.000000  0.000000

  0.005326  0.004116  0.000000
  0.004116  -0.004254  0.000000
  0.000000  0.000000  0.000000

  0.006588  0.005333  0.000000
  0.005333  -0.003821  0.000000
  0.000000  0.000000  0.000000

  0.004044  0.002922  0.000000
  0.002922  -0.003990  0.000000
  0.000000  0.000000  0.000000

  0.005551  0.004076  0.000000
  0.004076  -0.004514  0.000000
  0.000000  0.000000  0.000000

  0.003219  0.002038  0.000000
  0.002038  -0.004503  0.000000
  0.000000  0.000000  0.000000

  0.003502  0.005498  0.000000
  0.005498  -0.003829  0.000000
  0.000000  0.000000  0.000000

  0.003572  0.005699  0.000000
  0.005699  -0.003340  0.000000
  0.000000  0.000000  0.000000

  0.003313  0.007631  0.000000
  0.007631  -0.002806  0.000000
  0.000000  0.000000  0.000000

  0.002263  0.005171  0.000000
  0.005171  -0.003301  0.000000
  0.000000  0.000000  0.000000

  0.001466  0.006974  0.000000
  0.006974  -0.002041  0.000000
  0.000000  0.000000  0.000000

  0.000417  0.006067  0.000000
  0.006067  -0.001642  0.000000
  0.000000  0.000000  0.000000

  0.002418  0.007011  0.000000
  0.007011  -0.002043  0.000000
  0.000000  0.000000  0.000000

  0.000820  0.005565  0.000000
  0.005565  -0.001569  0.000000
  0.000000  0.000000  0.000000

  0.001721  0.004804  0.000000
  0.004804  -0.003060  0.000000
  0.000000  0.000000  0.000000

  0.001541  0.003998  0.000000
  0.003998  -0.002972  0.000000
  0.000000  0.000000  0.000000

  -0.000254  0.004697  0.000000
  0.004697  -0.001525  0.000000
  0.000000  0.000000  0.000000

  0.002400  0.003319  0.000000
  0.003319  -0.004179  0.000000
  0.000000  0.000000  0.000000

  0.001058  0.003648  0.000000
  0.003648  -0.002772  0.000000
  0.000000  0.000000  0.000000

  0.011327  0.003942  0.000000
  0.003942  -0.005810  0.000000
  0.000000  0.000000  0.000000

  0.006280  0.006682  0.000000
  0.006682  -0.003369  0.000000
  0.000000  0.000000  0.000000

  0.003309  0.003782  0.000000
  0.003782  -0.004490  0.000000
  0.000000  0.000000  0.000000

  -0.002100  0.001157  0.000000
  0.001157  0.000480  0.000000
  0.000000  0.000000  0.000000

  -0.001462  0.001118  0.000000
  0.001118  0.000480  0.000000
  0.000000  0.000000  0.000000

  -0.001614  0.001429  0.000000
  0.001429  -0.000049  0.000000
  0.000000  0.000000  0.000000

  -0.025879  0.000589  0.000000
  0.000589  0.006092  0.000000
  0.000000  0.000000  0.000000

  -0.002106  0.003652  0.000000
  0.003652  -0.000112  0.000000
  0.000000  0.000000  0.000000

  -0.000713  0.003070  0.000000
  0.003070  -0.000178  0.000000
  0.000000  0.000000  0.000000

  -0.006268  0.006926  0.000000
  0.006926  0.002028  0.000000
  0.000000  0.000000  0.000000

  -0.002408  0.009633  0.000000
  0.009633  0.001229  0.000000
  0.000000  0.000000  0.000000

  -0.000438  0.003257  0.000000
  0.003257  -0.001455  0.000000
  0.000000  0.000000  0.000000

  -0.004871  0.007933  0.000000
  0.007933  0.001463  0.000000
  0.000000  0.000000  0.000000

  -0.011522  0.005265  0.000000
  0.005265  0.003514  0.000000
  0.000000  0.000000  0.000000

  -0.006126  0.009014  0.000000
  0.009014  0.002290  0.000000
  0.000000  0.000000  0.000000

  -0.012524  0.004998  0.000000
  0.004998  0.003019  0.000000
  0.000000  0.000000  0.000000

  -0.013683  0.005833  0.000000
  0.005833  0.004959  0.000000
  0.000000  0.000000  0.000000

  -0.005024  0.010267  0.000000
  0.010267  0.002260  0.000000
  0.000000  0.000000  0.000000

  -0.002249  0.006960  0.000000
  0.006960  0.000100  0.000000
  0.000000  0.000000  0.000000

  0.000231  0.008683  0.000000
  0.008683  -0.000463  0.000000
  0.000000  0.000000  0.000000

  -0.002871  0.002161  0.000000
  0.002161  0.000541  0.000000
  0.000000  0.000000  0.000000

  -0.001253  0.001903  0.000000
  0.001903  0.000509  0.000000
  0.000000  0.000000  0.000000

  -0.001394  0.002296  0.000000
  0.002296  -0.000520  0.000000
  0.000000  0.000000  0.000000

  -0.000826  0.001276  0.000000
  0.001276  -0.000421  0.000000
  0.000000  0.000000  0.000000

  -0.000341  0.008080  0.000000
  0.008080  -0.000365  0.000000
  0.000000  0.000000  0.000000

  0.002327  0.009665  0.000000
  0.009665  -0.001574  0.000000
  0.000000  0.000000  0.000000

  0.006339  0.006869  0.000000
  0.006869  -0.002880  0.000000
  0.000000  0.000000  0.000000

  0.002458  0.003279  0.000000
  0.003279  -0.004396  0.000000
  0.000000  0.000000  0.000000

  0.003506  0.002379  0.000000
  0.002379  -0.005337  0.000000
  0.000000  0.000000  0.000000

  0.003688  0.004101  0.000000
  0.004101  -0.004457  0.000000
  0.000000  0.000000  0.000000

  0.002929  0.001971  0.000000
  0.001971  -0.005401  0.000000
  0.000000  0.000000  0.000000

  0.003403  0.001509  0.000000
  0.001509  -0.005550  0.000000
  0.000000  0.000000  0.000000

  0.002233  0.000362  0.000000
  0.000362  -0.005944  0.000000
  0.000000  0.000000  0.000000

  0.002612  0.001445  0.000000
  0.001445  -0.005237  0.000000
  0.000000  0.000000  0.000000

  0.004558  0.002833  0.000000
  0.002833  -0.005465  0.000000
  0.000000  0.000000  0.000000

  0.001943  0.002392  0.000000
  0.002392  -0.004010  0.000000
  0.000000  0.000000  0.000000

  0.001011  0.002669  0.000000
  0.002669  -0.002733  0.000000
  0.000000  0.000000  0.000000

  0.000370  0.003878  0.000000
  0.003878  -0.001511  0.000000
  0.000000  0.000000  0.000000

  0.003774  0.001836  0.000000
  0.001836  -0.005788  0.000000
  0.000000  0.000000  0.000000

  0.002541  0.000279  0.000000
  0.000279  -0.005863  0.000000
  0.000000  0.000000  0.000000

  0.011578  0.004785  0.000000
  0.004785  -0.003548  0.000000
  0.000000  0.000000  0.000000

  0.005911  0.008938  0.000000
  0.008938  -0.002357  0.000000
  0.000000  0.000000  0.000000

  0.004380  0.007765  0.000000
  0.007765  -0.001468  0.000000
  0.000000  0.000000  0.000000

  0.012303  0.004577  0.000000
  0.004577  -0.002756  0.000000
  0.000000  0.000000  0.000000

  0.027037  -0.000303  0.000000
  -0.000303  -0.006217  0.000000
  0.000000  0.000000  0.000000

  -0.000895  0.001312  0.000000
  0.001312  -0.000051  0.000000
  0.000000  0.000000  0.000000

  -0.000235  0.010905  0.000000
  0.010905  -0.000099  0.000000
  0.000000  0.000000  0.000000

  -0.000457  0.007285  0.000000
  0.007285  0.000370  0.000000
  0.000000  0.000000  0.000000

  0.001721  0.002331  0.000000
  0.002331  -0.003866  0.000000
  0.000000  0.000000  0.000000

  0.000656  0.002442  0.000000
  0.002442  -0.002505  0.000000
  0.000000  0.000000  0.000000

  -0.008925  0.006975  0.000000
  0.006975  0.002852  0.000000
  0.000000  0.000000  0.000000

  0.002369  0.001322  0.000000
  0.001322  -0.005266  0.000000
  0.000000  0.000000  0.000000

  0.057396  0.017248  0.000000
  0.017248  0.000000  0.000000
  0.000000  0.000000  0.000000

  0.045584  0.002835  0.000000
  0.002835  -0.015157  0.000000
  0.000000  0.000000  0.000000

  0.055754  0.003436  0.000000
  0.003436  -0.018091  0.000000
  0.000000  0.000000  0.000000

  0.035632  0.002969  0.000000
  0.002969  -0.011902  0.000000
  0.000000  0.000000  0.000000

  0.014046  0.005556  0.000000
  0.005556  -0.005492  0.000000
  0.000000  0.000000  0.000000

  0.061246  0.006895  0.000000
  0.006895  -0.017549  0.000000
  0.000000  0.000000  0.000000

  0.040724  0.002876  0.000000
  0.002876  -0.013645  0.000000
  0.000000  0.000000  0.000000

  0.004689  0.010403  0.000000
  0.010403  -0.002226  0.000000
  0.000000  0.000000  0.000000

  0.050534  0.002939  0.000000
  0.002939  -0.016747  0.000000
  0.000000  0.000000  0.000000

  0.031107  0.003251  0.000000
  0.003251  -0.009825  0.000000
  0.000000  0.000000  0.000000

  0.001141  0.001262  0.000000
  0.001262  -0.002463  0.000000
  0.000000  0.000000  0.000000

  0.021584  0.002474  0.000000
  0.002474  -0.007803  0.000000
  0.000000  0.000000  0.000000

  0.021903  0.004872  0.000000
  0.004872  -0.005465  0.000000
  0.000000  0.000000  0.000000

  0.021710  0.002019  0.000000
  0.002019  -0.005181  0.000000
  0.000000  0.000000  0.000000

  0.009846  0.008314  0.000000
  0.008314  -0.003647  0.000000
  0.000000  0.000000  0.000000

  0.010408  0.006247  0.000000
  0.006247  -0.003142  0.000000
  0.000000  0.000000  0.000000

  0.028475  0.002811  0.000000
  0.002811  -0.009498  0.000000
  0.000000  0.000000  0.000000

  0.028475  0.006348  0.000000
  0.006348  -0.009408  0.000000
  0.000000  0.000000  0.000000

  0.012615  0.006212  0.000000
  0.006212  -0.004293  0.000000
  0.000000  0.000000  0.000000

  0.025591  0.006070  0.000000
  0.006070  -0.008425  0.000000
  0.000000  0.000000  0.000000

  0.012617  0.008569  0.000000
  0.008569  -0.004261  0.000000
  0.000000  0.000000  0.000000

  0.025591  0.002945  0.000000
  0.002945  -0.008536  0.000000
  0.000000  0.000000  0.000000

  -0.002519  0.008861  0.000000
  0.008861  0.001084  0.000000
  0.000000  0.000000  0.000000

  -0.000677  0.008440  0.000000
  0.008440  0.000304  0.000000
  0.000000  0.000000  0.000000

  0.014436  0.006381  0.000000
  0.006381  -0.004780  0.000000
  0.000000  0.000000  0.000000

  -0.010660  0.008501  0.000000
  0.008501  0.004028  0.000000
  0.000000  0.000000  0.000000

  0.034515  0.003019  0.000000
  0.003019  -0.011513  0.000000
  0.000000  0.000000  0.000000

  0.034515  0.006301  0.000000
  0.006301  -0.011487  0.000000
  0.000000  0.000000  0.000000

  0.015987  0.006367  0.000000
  0.006367  -0.005252  0.000000
  0.000000  0.000000  0.000000

  0.031551  0.006418  0.000000
  0.006418  -0.010463  0.000000
  0.000000  0.000000  0.000000

  0.015988  0.008077  0.000000
  0.008077  -0.005406  0.000000
  0.000000  0.000000  0.000000

  0.031551  0.002863  0.000000
  0.002863  -0.010524  0.000000
  0.000000  0.000000  0.000000

  -0.000755  0.008210  0.000000
  0.008210  0.000288  0.000000
  0.000000  0.000000  0.000000

  -0.000756  0.007596  0.000000
  0.007596  0.000334  0.000000
  0.000000  0.000000  0.000000

  -0.001053  0.007984  0.000000
  0.007984  0.000363  0.000000
  0.000000  0.000000  0.000000

  0.014435  0.008323  0.000000
  0.008323  -0.004891  0.000000
  0.000000  0.000000  0.000000

  -0.017254  0.007605  0.000000
  0.007605  0.005805  0.000000
  0.000000  0.000000  0.000000

  -0.018414  0.007729  0.000000
  0.007729  0.006049  0.000000
  0.000000  0.000000  0.000000

  0.017458  0.005878  0.000000
  0.005878  -0.005329  0.000000
  0.000000  0.000000  0.000000

  0.036665  0.003354  0.000000
  0.003354  -0.011651  0.000000
  0.000000  0.000000  0.000000

  0.036764  0.005505  0.000000
  0.005505  -0.012218  0.000000
  0.000000  0.000000  0.000000

  0.017836  0.005080  0.000000
  0.005080  -0.002565  0.000000
  0.000000  0.000000  0.000000

  0.017829  0.008719  0.000000
  0.008719  -0.007840  0.000000
  0.000000  0.000000  0.000000

  0.034783  0.000985  0.000000
  0.000985  -0.010833  0.000000
  0.000000  0.000000  0.000000

  0.000372  0.002411  0.000000
  0.002411  -0.001475  0.000000
  0.000000  0.000000  0.000000

  0.000642  0.010827  0.000000
  0.010827  -0.000655  0.000000
  0.000000  0.000000  0.000000

  0.035004  0.002371  0.000000
  0.002371  -0.007620  0.000000
  0.000000  0.000000  0.000000

  0.009650  0.008834  0.000000
  0.008834  -0.002976  0.000000
  0.000000  0.000000  0.000000

  -0.000567  0.006466  0.000000
  0.006466  0.000383  0.000000
  0.000000  0.000000  0.000000

  -0.019667  0.004181  0.000000
  0.004181  0.005716  0.000000
  0.000000  0.000000  0.000000

  -0.000676  0.006839  0.000000
  0.006839  0.000715  0.000000
  0.000000  0.000000  0.000000

  -0.016936  0.008567  0.000000
  0.008567  0.006021  0.000000
  0.000000  0.000000  0.000000

  0.017456  0.007596  0.000000
  0.007596  -0.006285  0.000000
  0.000000  0.000000  0.000000

  -0.001046  0.005487  0.000000
  0.005487  0.002296  0.000000
  0.000000  0.000000  0.000000

  -0.001046  0.005532  0.000000
  0.005532  -0.001871  0.000000
  0.000000  0.000000  0.000000

  -0.032747  0.003385  0.000000
  0.003385  0.011460  0.000000
  0.000000  0.000000  0.000000

  -0.008989  0.010693  0.000000
  0.010693  0.001925  0.000000
  0.000000  0.000000  0.000000

  -0.002527  0.006061  0.000000
  0.006061  0.001391  0.000000
  0.000000  0.000000  0.000000

  -0.001052  0.007756  0.000000
  0.007756  0.000267  0.000000
  0.000000  0.000000  0.000000

  -0.020002  0.007558  0.000000
  0.007558  0.006792  0.000000
  0.000000  0.000000  0.000000

  -0.020003  0.005400  0.000000
  0.005400  0.006003  0.000000
  0.000000  0.000000  0.000000

  -0.036622  0.005916  0.000000
  0.005916  0.012126  0.000000
  0.000000  0.000000  0.000000

  -0.038533  0.004760  0.000000
  0.004760  0.012912  0.000000
  0.000000  0.000000  0.000000

  -0.018412  0.006000  0.000000
  0.006000  0.005943  0.000000
  0.000000  0.000000  0.000000

  -0.033511  0.006227  0.000000
  0.006227  0.011234  0.000000
  0.000000  0.000000  0.000000

  -0.017138  0.006638  0.000000
  0.006638  0.005288  0.000000
  0.000000  0.000000  0.000000

  -0.033509  0.001774  0.000000
  0.001774  0.010344  0.000000
  0.000000  0.000000  0.000000

  -0.045449  0.002992  0.000000
  0.002992  0.015853  0.000000
  0.000000  0.000000  0.000000

  -0.050358  0.003207  0.000000
  0.003207  0.017477  0.000000
  0.000000  0.000000  0.000000

  -0.030426  0.001355  0.000000
  0.001355  0.009675  0.000000
  0.000000  0.000000  0.000000

  -0.036624  0.002225  0.000000
  0.002225  0.011305  0.000000
  0.000000  0.000000  0.000000

  -0.056056  0.003930  0.000000
  0.003930  0.019014  0.000000
  0.000000  0.000000  0.000000

  -0.038337  0.003510  0.000000
  0.003510  0.011662  0.000000
  0.000000  0.000000  0.000000

  -0.061428  0.007336  0.000000
  0.007336  0.018270  0.000000
  0.000000  0.000000  0.000000

  -0.035901  0.002834  0.000000
  0.002834  0.007799  0.000000
  0.000000  0.000000  0.000000

  -0.030657  0.005574  0.000000
  0.005574  0.010316  0.000000
  0.000000  0.000000  0.000000

  -0.017026  0.008906  0.000000
  0.008906  0.004836  0.000000
  0.000000  0.000000  0.000000

  -0.040711  0.003789  0.000000
  0.003789  0.014287  0.000000
  0.000000  0.000000  0.000000

  -0.020215  0.003933  0.000000
  0.003933  0.001892  0.000000
  0.000000  0.000000  0.000000

  -0.035473  0.000877  0.000000
  0.000877  0.012223  0.000000
  0.000000  0.000000  0.000000

  -0.020076  0.008032  0.000000
  0.008032  0.008719  0.000000
  0.000000  0.000000  0.000000

  -0.009472  -0.002431  0.000000
  -0.002431  0.001013  0.000000
  0.000000  0.000000  0.000000

  0.010048  -0.002731  0.000000
  -0.002731  -0.001562  0.000000
  0.000000  0.000000  0.000000

  -0.019133  0.002431  0.000000
  0.002431  0.004750  0.000000
  0.000000  0.000000  0.000000

  0.001201  0.000824  0.000000
  0.000824  -0.004096  0.000000
  0.000000  0.000000  0.000000

  -0.056958  0.017241  0.000000
  0.017241  0.000000  0.000000
  0.000000  0.000000  0.000000

  -0.019472  0.003573  0.000000
  0.003573  0.007574  0.000000
  0.000000  0.000000  0.000000

  -0.031336  0.004187  0.000000
  0.004187  0.009417  0.000000
  0.000000  0.000000  0.000000

  -0.000667  0.008753  0.000000
  0.008753  0.000000  0.000000
  0.000000  0.000000  0.000000

  -0.020096  0.009186  0.000000
  0.009186  0.000000  0.000000
  0.000000  0.000000  0.000000

  0.017236  0.009344  0.000000
  0.009344  0.000000  0.000000
  0.000000  0.000000  0.000000

  -0.027463  0.000362  0.000000
  0.000362  0.009433  0.000000
  0.000000  0.000000  0.000000

  0.001477  0.001036  0.000000
  0.001036  -0.003946  0.000000
  0.000000  0.000000  0.000000

  -0.000282  0.001975  0.000000
  0.001975  -0.001295  0.000000
  0.000000  0.000000  0.000000

  0.000564  0.000955  0.000000
  0.000955  -0.001228  0.000000
  0.000000  0.000000  0.000000

  -0.000297  0.001809  0.000000
  0.001809  -0.000516  0.000000
  0.000000  0.000000  0.000000

  -0.000072  0.000597  0.000000
  0.000597  -0.000395  0.000000
  0.000000  0.000000  0.000000

  0.000578  0.000996  0.000000
  0.000996  -0.002399  0.000000
  0.000000  0.000000  0.000000

  -0.000139  0.000784  0.000000
  0.000784  -0.000753  0.000000
  0.000000  0.000000  0.000000

  0.002010  0.000277  0.000000
  0.000277  -0.005489  0.000000
  0.000000  0.000000  0.000000

  0.001861  0.000266  0.000000
  0.000266  -0.005307  0.000000
  0.000000  0.000000  0.000000

  0.007608  0.006172  0.000000
  0.006172  -0.002249  0.000000
  0.000000  0.000000  0.000000
POINT_DATA 126
VECTORS displacements double
  0.000000  0.000000  0.000000
  0.057720  -0.034944  0.000000
  0.000000  0.000000  0.000000
  0.054820  -0.039293  0.000000
  0.018596  -0.017001  0.000000
  0.119970  -0.083705  0.000000
  0.000000  0.000000  0.000000
  0.039589  -0.061966  0.000000
  0.100072  -0.101693  0.000000
  0.000808  -0.021202  0.000000
  0.176775  -0.153694  0.000000
  0.000000  0.000000  0.000000
  0.059570  -0.131010  0.000000
  -0.017172  -0.018620  0.000000
  0.002846  -0.090642  0.000000
  0.136667  -0.181401  0.000000
  -0.034973  -0.061676  0.000000
  0.227807  -0.244854  0.000000
  0.000000  0.000000  0.000000
  0.003925  -0.171050  0.000000
  0.078012  -0.221410  0.000000
  -0.052267  -0.038770  0.000000
  -0.052404  -0.130601  0.000000
  0.170192  -0.280961  0.000000
  -0.093204  -0.100797  0.000000
  0.273863  -0.355312  0.000000
  0.000000  0.000000  0.000000
  0.004644  -0.271120  0.000000
  -0.057317  -0.034448  0.000000
  -0.068383  -0.220793  0.000000
  0.102155  -0.337930  0.000000
  0.200973  -0.388683  0.000000
  -0.118480  -0.082408  0.000000
  -0.127671  -0.180302  0.000000
  -0.174157  -0.150520  0.000000
  -0.082775  -0.330092  0.000000
  0.005362  -0.389388  0.000000
  0.315119  -0.483883  0.000000
  -0.159179  -0.279651  0.000000
  -0.224623  -0.239091  0.000000
  0.157702  -0.517401  0.000000
  -0.095406  -0.455968  0.000000
  -0.187615  -0.396828  0.000000
  0.007728  -0.524865  0.000000
  0.348304  -0.625396  0.000000
  -0.270145  -0.346465  0.000000
  0.228343  -0.664385  0.000000
  0.095283  -0.636111  0.000000
  -0.213171  -0.530036  0.000000
  -0.086001  -0.612309  0.000000
  -0.310813  -0.470824  0.000000
  0.380059  -0.779784  0.000000
  0.165779  -0.780121  0.000000
  -0.000291  -0.761365  0.000000
  -0.238602  -0.649352  0.000000
  -0.346396  -0.609863  0.000000
  -0.156605  -0.764270  0.000000
  0.241134  -0.931309  0.000000
  0.406284  -0.948164  0.000000
  0.089161  -0.914724  0.000000
  -0.083427  -0.902072  0.000000
  -0.377460  -0.761226  0.000000
  -0.239096  -0.912097  0.000000
  0.498745  -1.082225  0.000000
  0.327191  -1.087035  0.000000
  0.163255  -1.072143  0.000000
  0.005429  -1.059310  0.000000
  -0.404461  -0.925536  0.000000
  -0.162679  -1.055619  0.000000
  0.584059  -1.217756  0.000000
  0.410817  -1.224704  0.000000
  0.244860  -1.230429  0.000000
  -0.327595  -1.066863  0.000000
  0.080904  -1.216769  0.000000
  -0.081845  -1.203059  0.000000
  -0.502940  -1.065039  0.000000
  -0.246656  -1.213827  0.000000
  0.492806  -1.361773  0.000000
  0.665479  -1.353747  0.000000
  0.324229  -1.368521  0.000000
  0.159833  -1.375866  0.000000
  -0.416013  -1.211635  0.000000
  -0.005710  -1.363991  0.000000
  -0.163237  -1.362680  0.000000
  -0.594512  -1.207725  0.000000
  0.572991  -1.497927  0.000000
  0.403511  -1.505715  0.000000
  0.744371  -1.489148  0.000000
  -0.330410  -1.360056  0.000000
  0.236687  -1.513647  0.000000
  0.071967  -1.522791  0.000000
  -0.503326  -1.357564  0.000000
  -0.077432  -1.512200  0.000000
  -0.244484  -1.509087  0.000000
  -0.682792  -1.353033  0.000000
  0.498174  -1.655348  0.000000
  0.649532  -1.655336  0.000000
  0.329814  -1.664021  0.000000
  -0.414791  -1.507119  0.000000
  0.163049  -1.673396  0.000000
  -0.014435  -1.673433  0.000000
  -0.589593  -1.505123  0.000000
  -0.168203  -1.667335  0.000000
  -0.337892  -1.665333  0.000000
  -0.769516  -1.502033  0.000000
  0.405231  -1.822767  0.000000
  0.556121  -1.821347  0.000000
  0.254967  -1.822697  0.000000
  -0.510510  -1.664302  0.000000
  0.070461  -1.826517  0.000000
  -0.100722  -1.825708  0.000000
  -0.272148  -1.813981  0.000000
  -0.671512  -1.673482  0.000000
  -0.443986  -1.810017  0.000000
  0.329799  -1.985317  0.000000
  0.462420  -1.987594  0.000000
  0.153778  -1.980642  0.000000
  -0.018986  -1.979947  0.000000
  -0.576425  -1.839657  0.000000
  -0.242752  -1.992042  0.000000
  -0.482200  -2.003952  0.000000
  0.367829  -2.152887  0.000000
  0.178828  -2.153704  0.000000
  -0.009436  -2.156308  0.000000
  -0.198114  -2.160753  0.000000
  -0.388607  -2.166710  0.000000

CELL_DATA 207
TENSORS stress double
  -14374.435305  2168.699561  0.000000
  2168.699561  -854.160602  0.000000
  0.000000  0.000000  0.000000


  -39168.950584  -2127.692329  0.000000
  -2127.692329  -1179.131962  0.000000
  0.000000  0.000000  0.000000


  -87264.702543  -9776.390310  0.000000
  -9776.390310  -6744.868017  0.000000
  0.000000  0.000000  0.000000


  -192860.147019  -16918.902671  0.000000
  -16918.902671  -21549.921898  0.000000
  0.000000  0.000000  0.000000


  208761.714093  -25857.049149  0.000000
  -25857.049149  26338.683737  0.000000
  0.000000  0.000000  0.000000


  99911.053821  -17333.074508  0.000000
  -17333.074508  9488.414481  0.000000
  0.000000  0.000000  0.000000


  49920.590364  -6973.443514  0.000000
  -6973.443514  -2120.750391  0.000000
  0.000000  0.000000  0.000000


  19401.451655  5496.963039  0.000000
  5496.963039  -28309.122772  0.000000
  0.000000  0.000000  0.000000


  -21441.229347  -1034.396279  0.000000
  -1034.396279  4840.729594  0.000000
  0.000000  0.000000  0.000000


  -41284.007785  10421.704993  0.000000
  10421.704993  618.286039  0.000000
  0.000000  0.000000  0.000000


  -39303.355870  -1599.707011  0.000000
  -1599.707011  10283.421806  0.000000
  0.000000  0.000000  0.000000


  -68840.317669  15453.689349  0.000000
  15453.689349  2446.812685  0.000000
  0.000000  0.000000  0.000000


  -65525.034698  2546.039824  0.000000
  2546.039824  23340.850430  0.000000
  0.000000  0.000000  0.000000


  -105320.640844  25522.080387  0.000000
  25522.080387  929.813910  0.000000
  0.000000  0.000000  0.000000


  -101252.175416  30686.426870  0.000000
  30686.426870  21919.045497  0.000000
  0.000000  0.000000  0.000000


  -30078.999817  16738.006817  0.000000
  16738.006817  15451.872608  0.000000
  0.000000  0.000000  0.000000


  -45919.815297  25883.809224  0.000000
  25883.809224  -1678.178510  0.000000
  0.000000  0.000000  0.000000


  -44256.948885  28615.487476  0.000000
  28615.487476  21569.842755  0.000000
  0.000000  0.000000  0.000000


  -60478.497374  37981.050157  0.000000
  37981.050157  -46.020123  0.000000
  0.000000  0.000000  0.000000


  -58219.483990  49503.959314  0.000000
  49503.959314  13751.159935  0.000000
  0.000000  0.000000  0.000000


  -24590.364223  37136.895607  0.000000
  37136.895607  11705.997108  0.000000
  0.000000  0.000000  0.000000


  -29214.763921  39806.805578  0.000000
  39806.805578  -7828.262727  0.000000
  0.000000  0.000000  0.000000


  -18303.759094  23759.206909  0.000000
  23759.206909  7155.358729  0.000000
  0.000000  0.000000  0.000000


  -8210.504900  50532.940726  0.000000
  50532.940726  -1504.101678  0.000000
  0.000000  0.000000  0.000000


  -11203.368213  35950.256916  0.000000
  35950.256916  -2418.222895  0.000000
  0.000000  0.000000  0.000000


  -11156.900531  1216.059597  0.000000
  1216.059597  74.793853  0.000000
  0.000000  0.000000  0.000000


  -19016.757929  9925.448457  0.000000
  9925.448457  7913.850272  0.000000
  0.000000  0.000000  0.000000


  -27698.396553  54751.717074  0.000000
  54751.717074  10421.974074  0.000000
  0.000000  0.000000  0.000000


  68553.620220  125.964709  0.000000
  125.964709  -22718.952537  0.000000
  0.000000  0.000000  0.000000


  108807.805694  23366.852995  0.000000
  23366.852995  -5624.938853  0.000000
  0.000000  0.000000  0.000000


  40378.563327  -1665.459769  0.000000
  -1665.459769  -11784.650832  0.000000
  0.000000  0.000000  0.000000


  71317.531326  16197.219623  0.000000
  16197.219623  -15629.757591  0.000000
  0.000000  0.000000  0.000000


  21670.514813  3760.941866  0.000000
  3760.941866  -12530.772040  0.000000
  0.000000  0.000000  0.000000


  42445.105207  15754.872939  0.000000
  15754.872939  -30955.771016  0.000000
  0.000000  0.000000  0.000000


  7222.755668  2618.324585  0.000000
  2618.324585  -32079.793601  0.000000
  0.000000  0.000000  0.000000


  43968.588969  30867.953726  0.000000
  30867.953726  -27880.391549  0.000000
  0.000000  0.000000  0.000000


  59787.518149  40001.071544  0.000000
  40001.071544  -18281.338212  0.000000
  0.000000  0.000000  0.000000


  30528.245111  21916.614077  0.000000
  21916.614077  -29725.873961  0.000000
  0.000000  0.000000  0.000000


  45521.350550  30572.919128  0.000000
  30572.919128  -29966.530738  0.000000
  0.000000  0.000000  0.000000


  19322.274731  15281.382329  0.000000
  15281.382329  -38591.685876  0.000000
  0.000000  0.000000  0.000000


  25042.541148  41234.818150  0.000000
  41234.818150  -29941.118847  0.000000
  0.000000  0.000000  0.000000


  27657.073514  42744.337260  0.000000
  42744.337260  -24183.943288  0.000000
  0.000000  0.000000  0.000000


  26750.560912  57233.035039  0.000000
  57233.035039  -19148.099585  0.000000
  0.000000  0.000000  0.000000


  13083.421690  38785.601766  0.000000
  38785.601766  -28647.018535  0.000000
  0.000000  0.000000  0.000000


  8836.071305  52308.010567  0.000000
  52308.010567  -17462.594349  0.000000
  0.000000  0.000000  0.000000


  -1462.566774  45502.420566  0.000000
  45502.420566  -16905.141861  0.000000
  0.000000  0.000000  0.000000


  19540.938346  52583.676102  0.000000
  52583.676102  -13911.679686  0.000000
  0.000000  0.000000  0.000000


  3342.873120  41735.971242  0.000000
  41735.971242  -14570.994360  0.000000
  0.000000  0.000000  0.000000


  7888.747809  36031.349571  0.000000
  36031.349571  -27972.203422  0.000000
  0.000000  0.000000  0.000000


  6186.570472  29988.446565  0.000000
  29988.446565  -27657.092193  0.000000
  0.000000  0.000000  0.000000


  -8576.688583  35229.140483  0.000000
  35229.140483  -18105.066385  0.000000
  0.000000  0.000000  0.000000


  11331.924032  24893.773140  0.000000
  24893.773140  -38014.022784  0.000000
  0.000000  0.000000  0.000000


  1508.291287  27363.446859  0.000000
  27363.446859  -27216.068701  0.000000
  0.000000  0.000000  0.000000


  105645.884415  29562.721112  0.000000
  29562.721112  -22881.577657  0.000000
  0.000000  0.000000  0.000000


  58019.370269  50118.481855  0.000000
  50118.481855  -14353.776875  0.000000
  0.000000  0.000000  0.000000


  20384.881428  28363.950324  0.000000
  28363.950324  -38105.610941  0.000000
  0.000000  0.000000  0.000000


  -21819.008673  8679.951143  0.000000
  8679.951143  -2469.746435  0.000000
  0.000000  0.000000  0.000000


  -14651.603797  8388.601158  0.000000
  8388.601158  -82.854785  0.000000
  0.000000  0.000000  0.000000


  -18335.445656  10715.061128  0.000000
  10715.061128  -6597.176246  0.000000
  0.000000  0.000000  0.000000


  -268293.797710  4415.682601  0.000000
  4415.682601  -28508.648628  0.000000
  0.000000  0.000000  0.000000


  -24109.004190  27390.443184  0.000000
  27390.443184  -9156.163203  0.000000
  0.000000  0.000000  0.000000


  -8691.629434  23026.612194  0.000000
  23026.612194  -4676.484437  0.000000
  0.000000  0.000000  0.000000


  -62911.569597  51948.227028  0.000000
  51948.227028  -688.179676  0.000000
  0.000000  0.000000  0.000000


  -22476.438200  72250.066388  0.000000
  72250.066388  4795.894970  0.000000
  0.000000  0.000000  0.000000


  -10387.785217  24429.959819  0.000000
  24429.959819  -18009.087556  0.000000
  0.000000  0.000000  0.000000


  -49310.260628  59499.952653  0.000000
  59499.952653  -1807.989259  0.000000
  0.000000  0.000000  0.000000


  -116446.926619  39488.867817  0.000000
  39488.867817  -3676.128504  0.000000
  0.000000  0.000000  0.000000


  -60328.451518  67604.989221  0.000000
  67604.989221  2788.951117  0.000000
  0.000000  0.000000  0.000000


  -129576.777909  37488.733571  0.000000
  37488.733571  -13000.172469  0.000000
  0.000000  0.000000  0.000000


  -135339.416312  43745.930774  0.000000
  43745.930774  4475.744331  0.000000
  0.000000  0.000000  0.000000


  -48042.253509  77005.881606  0.000000
  77005.881606  6588.177865  0.000000
  0.000000  0.000000  0.000000


  -24920.668460  52203.650424  0.000000
  52203.650424  -7303.054103  0.000000
  0.000000  0.000000  0.000000


  864.886978  65122.280829  0.000000
  65122.280829  -4341.647430  0.000000
  0.000000  0.000000  0.000000


  -30272.161643  16204.933479  0.000000
  16204.933479  -4677.627977  0.000000
  0.000000  0.000000  0.000000


  -12192.198865  14269.324259  0.000000
  14269.324259  1028.172601  0.000000
  0.000000  0.000000  0.000000


  -17630.513837  17216.856949  0.000000
  17216.856949  -11074.056865  0.000000
  0.000000  0.000000  0.000000


  -10869.738205  9571.058525  0.000000
  9571.058525  -7837.462671  0.000000
  0.000000  0.000000  0.000000


  -5208.365826  60601.205352  0.000000
  60601.205352  -5381.906328  0.000000
  0.000000  0.000000  0.000000


  20272.073476  72487.851040  0.000000
  72487.851040  -8981.171703  0.000000
  0.000000  0.000000  0.000000


  60516.964766  51520.108094  0.000000
  51520.108094  -8628.080223  0.000000
  0.000000  0.000000  0.000000


  11167.744659  24590.641793  0.000000
  24590.641793  -40238.893785  0.000000
  0.000000  0.000000  0.000000


  19426.745155  17845.357275  0.000000
  17845.357275  -46894.672672  0.000000
  0.000000  0.000000  0.000000


  24777.925848  30756.780111  0.000000
  30756.780111  -36306.722308  0.000000
  0.000000  0.000000  0.000000


  12696.765036  14780.308240  0.000000
  14780.308240  -49780.283691  0.000000
  0.000000  0.000000  0.000000


  17469.290925  11318.604610  0.000000
  11318.604610  -49680.604086  0.000000
  0.000000  0.000000  0.000000


  2830.224906  2718.634796  0.000000
  2718.634796  -58496.636323  0.000000
  0.000000  0.000000  0.000000


  9744.426110  10834.030332  0.000000
  10834.030332  -49124.894085  0.000000
  0.000000  0.000000  0.000000


  30788.916608  21245.395353  0.000000
  21245.395353  -44387.809217  0.000000
  0.000000  0.000000  0.000000


  6819.891524  17942.334215  0.000000
  17942.334215  -37831.493398  0.000000
  0.000000  0.000000  0.000000


  1128.883132  20017.593366  0.000000
  20017.593366  -26951.270338  0.000000
  0.000000  0.000000  0.000000


  -1505.463616  29082.429792  0.000000
  29082.429792  -15613.189655  0.000000
  0.000000  0.000000  0.000000


  20759.009728  13773.381758  0.000000
  13773.381758  -50956.793453  0.000000
  0.000000  0.000000  0.000000


  6605.358228  2094.720213  0.000000
  2094.720213  -56424.727044  0.000000
  0.000000  0.000000  0.000000


  116941.920629  35888.458025  0.000000
  35888.458025  3498.918064  0.000000
  0.000000  0.000000  0.000000


  57656.525305  67032.666650  0.000000
  67032.666650  -4348.457160  0.000000
  0.000000  0.000000  0.000000


  43770.137478  58239.040512  0.000000
  58239.040512  -86.441388  0.000000
  0.000000  0.000000  0.000000


  128067.931047  34329.206754  0.000000
  34329.206754  15127.449849  0.000000
  0.000000  0.000000  0.000000


  280851.550123  -2269.361242  0.000000
  -2269.361242  31444.130695  0.000000
  0.000000  0.000000  0.000000


  -10260.108647  9838.416460  0.000000
  9838.416460  -3927.003149  0.000000
  0.000000  0.000000  0.000000


  -3019.629946  81789.049845  0.000000
  81789.049845  -1994.491650  0.000000
  0.000000  0.000000  0.000000


  -3753.354975  54641.235494  0.000000
  54641.235494  2452.674966  0.000000
  0.000000  0.000000  0.000000


  4869.229894  17481.396865  0.000000
  17481.396865  -37034.643802  0.000000
  0.000000  0.000000  0.000000


  -2012.351767  18313.659880  0.000000
  18313.659880  -25724.509993  0.000000
  0.000000  0.000000  0.000000


  -89712.407517  52311.115879  0.000000
  52311.115879  -1383.345700  0.000000
  0.000000  0.000000  0.000000


  6907.867202  9917.562416  0.000000
  9917.562416  -50357.021259  0.000000
  0.000000  0.000000  0.000000


  645699.742329  129359.230934  0.000000
  129359.230934  215231.095111  0.000000
  0.000000  0.000000  0.000000


  455980.284546  21266.299523  0.000000
  21266.299523  416.994130  0.000000
  0.000000  0.000000  0.000000


  559386.701024  25773.382634  0.000000
  25773.382634  5549.509796  0.000000
  0.000000  0.000000  0.000000


  356228.236859  22266.830423  0.000000
  22266.830423  -277.058837  0.000000
  0.000000  0.000000  0.000000


  137426.037780  41673.316536  0.000000
  41673.316536  -9116.637124  0.000000
  0.000000  0.000000  0.000000


  623214.309523  51711.448500  0.000000
  51711.448500  32250.004795  0.000000
  0.000000  0.000000  0.000000


  406970.976212  21572.037104  0.000000
  21572.037104  -796.890267  0.000000
  0.000000  0.000000  0.000000


  44401.142601  78024.321900  0.000000
  78024.321900  -7461.864819  0.000000
  0.000000  0.000000  0.000000


  505711.188557  22044.592622  0.000000
  22044.592622  1100.400664  0.000000
  0.000000  0.000000  0.000000


  313106.001014  24379.646036  0.000000
  24379.646036  6116.668465  0.000000
  0.000000  0.000000  0.000000


  3596.943511  9464.370025  0.000000
  9464.370025  -23431.344920  0.000000
  0.000000  0.000000  0.000000


  213563.603884  18553.271653  0.000000
  18553.271653  -6843.535880  0.000000
  0.000000  0.000000  0.000000


  225918.325810  36541.592297  0.000000
  36541.592297  20659.008308  0.000000
  0.000000  0.000000  0.000000


  224810.935684  15141.953391  0.000000
  15141.953391  23124.699645  0.000000
  0.000000  0.000000  0.000000


  97094.106057  62352.323867  0.000000
  62352.323867  -4110.546426  0.000000
  0.000000  0.000000  0.000000


  105306.288685  46849.063023  0.000000
  46849.063023  3680.607804  0.000000
  0.000000  0.000000  0.000000


  284719.940262  21082.593763  0.000000
  21082.593763  -75.194241  0.000000
  0.000000  0.000000  0.000000


  285056.916630  47607.197281  0.000000
  47607.197281  935.744970  0.000000
  0.000000  0.000000  0.000000


  125815.824683  46586.620402  0.000000
  46586.620402  -989.870020  0.000000
  0.000000  0.000000  0.000000


  256304.946622  45521.482083  0.000000
  45521.482083  1181.186038  0.000000
  0.000000  0.000000  0.000000


  125957.555962  64266.258877  0.000000
  64266.258877  -627.069895  0.000000
  0.000000  0.000000  0.000000


  255889.369631  22085.368182  0.000000
  22085.368182  -65.557405  0.000000
  0.000000  0.000000  0.000000


  -24280.002846  66459.773394  0.000000
  66459.773394  2743.322443  0.000000
  0.000000  0.000000  0.000000


  -6476.264849  63298.868189  0.000000
  63298.868189  884.872506  0.000000
  0.000000  0.000000  0.000000


  144482.718319  47859.723625  0.000000
  47859.723625  357.041226  0.000000
  0.000000  0.000000  0.000000


  -104817.914605  63758.356132  0.000000
  63758.356132  5339.163232  0.000000
  0.000000  0.000000  0.000000


  345116.023148  22639.148290  0.000000
  22639.148290  -91.314377  0.000000
  0.000000  0.000000  0.000000


  345212.106617  47259.936662  0.000000
  47259.936662  196.938915  0.000000
  0.000000  0.000000  0.000000


  160157.207959  47754.744767  0.000000
  47754.744767  865.512366  0.000000
  0.000000  0.000000  0.000000


  315712.412373  48131.938716  0.000000
  48131.938716  610.911563  0.000000
  0.000000  0.000000  0.000000


  159597.715413  60575.981104  0.000000
  60575.981104  -858.233507  0.000000
  0.000000  0.000000  0.000000


  315480.859121  21471.876605  0.000000
  21471.876605  -83.755140  0.000000
  0.000000  0.000000  0.000000


  -7417.004030  61573.666717  0.000000
  61573.666717  406.995336  0.000000
  0.000000  0.000000  0.000000


  -7250.006641  56972.981512  0.000000
  56972.981512  923.121837  0.000000
  0.000000  0.000000  0.000000


  -10481.174414  59883.512204  0.000000
  59883.512204  132.949754  0.000000
  0.000000  0.000000  0.000000


  144048.842007  62423.595999  0.000000
  62423.595999  -893.331541  0.000000
  0.000000  0.000000  0.000000


  -172337.671120  57040.572841  0.000000
  57040.572841  606.180233  0.000000
  0.000000  0.000000  0.000000


  -184472.621349  57964.774377  0.000000
  57964.774377  -1003.438649  0.000000
  0.000000  0.000000  0.000000


  176414.974711  44085.026879  0.000000
  44085.026879  5513.480713  0.000000
  0.000000  0.000000  0.000000


  368794.107396  25156.800497  0.000000
  25156.800497  6421.388064  0.000000
  0.000000  0.000000  0.000000


  367779.127300  41287.753579  0.000000
  41287.753579  410.881622  0.000000
  0.000000  0.000000  0.000000


  191033.999239  38102.870068  0.000000
  38102.870068  38027.813753  0.000000
  0.000000  0.000000  0.000000


  171179.961654  65391.742520  0.000000
  65391.742520  -21340.655753  0.000000
  0.000000  0.000000  0.000000


  350686.786725  7390.221455  0.000000
  7390.221455  8567.457201  0.000000
  0.000000  0.000000  0.000000


  -1343.628083  18086.068337  0.000000
  18086.068337  -15195.442932  0.000000
  0.000000  0.000000  0.000000


  4767.221866  81201.196471  0.000000
  81201.196471  -4964.711964  0.000000
  0.000000  0.000000  0.000000


  365221.703673  17785.781329  0.000000
  17785.781329  45538.457558  0.000000
  0.000000  0.000000  0.000000


  97403.718477  66252.309061  0.000000
  66252.309061  2705.067232  0.000000
  0.000000  0.000000  0.000000


  -4946.037228  48498.019308  0.000000
  48498.019308  2179.444596  0.000000
  0.000000  0.000000  0.000000


  -199814.853774  31357.839244  0.000000
  31357.839244  -9445.902541  0.000000
  0.000000  0.000000  0.000000


  -4920.018189  51294.603817  0.000000
  51294.603817  5514.280271  0.000000
  0.000000  0.000000  0.000000


  -167953.702745  64253.090011  0.000000
  64253.090011  4226.796137  0.000000
  0.000000  0.000000  0.000000


  172814.065208  56968.710666  0.000000
  56968.710666  -5244.006386  0.000000
  0.000000  0.000000  0.000000


  -3154.433847  41151.295700  0.000000
  41151.295700  21904.912309  0.000000
  0.000000  0.000000  0.000000


  -18783.488021  41490.933544  0.000000
  41490.933544  -24968.317358  0.000000
  0.000000  0.000000  0.000000


  -325424.662850  25387.443883  0.000000
  25387.443883  6128.785897  0.000000
  0.000000  0.000000  0.000000


  -93907.607668  80199.786572  0.000000
  80199.786572  -12048.560612  0.000000
  0.000000  0.000000  0.000000


  -23209.813015  45454.228293  0.000000
  45454.228293  6172.433891  0.000000
  0.000000  0.000000  0.000000


  -10836.117960  58171.621965  0.000000
  58171.621965  -937.508009  0.000000
  0.000000  0.000000  0.000000


  -199555.373202  56685.338723  0.000000
  56685.338723  1404.484987  0.000000
  0.000000  0.000000  0.000000


  -202517.657232  40503.364553  0.000000
  40503.364553  -7470.795260  0.000000
  0.000000  0.000000  0.000000


  -366523.262427  44366.509231  0.000000
  44366.509231  -917.063125  0.000000
  0.000000  0.000000  0.000000


  -385079.022002  35697.790991  0.000000
  35697.790991  760.935437  0.000000
  0.000000  0.000000  0.000000


  -184853.050942  45001.079771  0.000000
  45001.079771  -2188.304713  0.000000
  0.000000  0.000000  0.000000


  -334869.173914  46703.353934  0.000000
  46703.353934  719.882572  0.000000
  0.000000  0.000000  0.000000


  -172974.833311  49782.983986  0.000000
  49782.983986  -4780.125654  0.000000
  0.000000  0.000000  0.000000


  -338180.822858  13308.349991  0.000000
  13308.349991  -9284.643525  0.000000
  0.000000  0.000000  0.000000


  -451847.003580  22438.622700  0.000000
  22438.622700  7914.828509  0.000000
  0.000000  0.000000  0.000000


  -500984.619748  24049.717267  0.000000
  24049.717267  7775.859528  0.000000
  0.000000  0.000000  0.000000


  -306016.447853  10159.609361  0.000000
  10159.609361  -5256.414621  0.000000
  0.000000  0.000000  0.000000


  -369632.052680  16689.421028  0.000000
  16689.421028  -10163.814945  0.000000
  0.000000  0.000000  0.000000


  -559323.389425  29475.434340  0.000000
  29475.434340  3698.708699  0.000000
  0.000000  0.000000  0.000000


  -387556.020742  26325.689632  0.000000
  26325.689632  -12562.070295  0.000000
  0.000000  0.000000  0.000000


  -622554.243105  55017.806503  0.000000
  55017.806503  -24816.547523  0.000000
  0.000000  0.000000  0.000000


  -374636.516668  21257.390297  0.000000
  21257.390297  -46887.448628  0.000000
  0.000000  0.000000  0.000000


  -306203.023047  41802.903563  0.000000
  41802.903563  1098.085543  0.000000
  0.000000  0.000000  0.000000


  -173408.938826  66792.774789  0.000000
  66792.774789  -9443.592904  0.000000
  0.000000  0.000000  0.000000


  -404424.500081  28419.661494  0.000000
  28419.661494  8058.440969  0.000000
  0.000000  0.000000  0.000000


  -220325.237962  29498.153038  0.000000
  29498.153038  -54518.074495  0.000000
  0.000000  0.000000  0.000000


  -353232.605575  6578.094915  0.000000
  6578.094915  4483.092861  0.000000
  0.000000  0.000000  0.000000


  -193160.530677  60238.653806  0.000000
  60238.653806  22800.372902  0.000000
  0.000000  0.000000  0.000000


  -102759.721846  -18229.873948  0.000000
  -18229.873948  -24127.435439  0.000000
  0.000000  0.000000  0.000000


  107178.871988  -20480.149430  0.000000
  -20480.149430  20101.343915  0.000000
  0.000000  0.000000  0.000000


  -197431.051791  18231.922989  0.000000
  18231.922989  -18311.635405  0.000000
  0.000000  0.000000  0.000000


  -1850.867557  6179.402559  0.000000
  6179.402559  -41576.100895  0.000000
  0.000000  0.000000  0.000000


  -640770.410559  129309.634147  0.000000
  129309.634147  -213588.000952  0.000000
  0.000000  0.000000  0.000000


  -190661.621180  26800.215981  0.000000
  26800.215981  12182.287564  0.000000
  0.000000  0.000000  0.000000


  -317211.243441  31402.012420  0.000000
  31402.012420  -11567.636382  0.000000
  0.000000  0.000000  0.000000


  -7501.249973  65651.302158  0.000000
  65651.302158  -2500.391653  0.000000
  0.000000  0.000000  0.000000


  -226077.085920  68892.654214  0.000000
  68892.654214  -75358.275050  0.000000
  0.000000  0.000000  0.000000


  193899.738333  70081.805378  0.000000
  70081.805378  64632.599779  0.000000
  0.000000  0.000000  0.000000


  -273589.769281  2714.000861  0.000000
  2714.000861  3129.637246  0.000000
  0.000000  0.000000  0.000000


  1821.345424  7771.242599  0.000000
  7771.242599  -38850.109232  0.000000
  0.000000  0.000000  0.000000


  -8030.060477  14813.893396  0.000000
  14813.893396  -15624.768952  0.000000
  0.000000  0.000000  0.000000


  1741.425535  7163.822953  0.000000
  7163.822953  -11698.320818  0.000000
  0.000000  0.000000  0.000000


  -5276.061288  13567.112341  0.000000
  13567.112341  -6923.180997  0.000000
  0.000000  0.000000  0.000000


  -2295.492457  4480.884143  0.000000
  4480.884143  -4720.120462  0.000000
  0.000000  0.000000  0.000000


  -2492.471895  7468.006555  0.000000
  7468.006555  -24821.132060  0.000000
  0.000000  0.000000  0.000000


  -4385.311195  5883.228510  0.000000
  5883.228510  -8988.999474  0.000000
  0.000000  0.000000  0.000000


  2033.807458  2077.905022  0.000000
  2077.905022  -54210.400904  0.000000
  0.000000  0.000000  0.000000


  1038.780419  1997.666992  0.000000
  1997.666992  -52722.959784  0.000000
  0.000000  0.000000  0.000000


  77157.072509  46287.068478  0.000000
  46287.068478  3224.792362  0.000000
  0.000000  0.000000  0.000000

