# vtk DataFile Version 2.0
SensitivityAnalysis
ASCII

DATASET UNSTRUCTURED_GRID
POINTS 147 double
  0.000000  0.300000  0.000000
  0.000000  0.250000  0.000000
  0.050000  0.300000  0.000000
  0.050000  0.250000  0.000000
  0.000000  0.200000  0.000000
  0.100000  0.300000  0.000000
  0.100000  0.250000  0.000000
  0.050000  0.200000  0.000000
  0.100000  0.200000  0.000000
  0.000000  0.150000  0.000000
  0.150000  0.300000  0.000000
  0.150000  0.250000  0.000000
  0.050000  0.150000  0.000000
  0.100000  0.150000  0.000000
  0.150000  0.200000  0.000000
  0.200000  0.300000  0.000000
  0.000000  0.100000  0.000000
  0.200000  0.250000  0.000000
  0.050000  0.100000  0.000000
  0.150000  0.150000  0.000000
  0.200000  0.200000  0.000000
  0.100000  0.100000  0.000000
  0.150000  0.100000  0.000000
  0.250000  0.300000  0.000000
  0.000000  0.050000  0.000000
  0.200000  0.150000  0.000000
  0.250000  0.250000  0.000000
  0.050000  0.050000  0.000000
  0.250000  0.200000  0.000000
  0.100000  0.050000  0.000000
  0.200000  0.100000  0.000000
  0.250000  0.150000  0.000000
  0.150000  0.050000  0.000000
  0.000000  0.000000  0.000000
  0.300000  0.300000  0.000000
  0.050000  0.000000  0.000000
  0.300000  0.250000  0.000000
  0.100000  0.000000  0.000000
  0.300000  0.200000  0.000000
  0.200000  0.050000  0.000000
  0.250000  0.100000  0.000000
  0.150000  0.000000  0.000000
  0.300000  0.150000  0.000000
  0.350000  0.300000  0.000000
  0.350000  0.250000  0.000000
  0.250000  0.050000  0.000000
  0.200000  0.000000  0.000000
  0.300000  0.100000  0.000000
  0.350000  0.200000  0.000000
  0.350000  0.150000  0.000000
  0.250000  0.000000  0.000000
  0.300000  0.050000  0.000000
  0.400000  0.300000  0.000000
  0.350000  0.100000  0.000000
  0.400000  0.250000  0.000000
  0.400000  0.200000  0.000000
  0.300000  0.000000  0.000000
  0.400000  0.150000  0.000000
  0.350000  0.050000  0.000000
  0.400000  0.100000  0.000000
  0.450000  0.300000  0.000000
  0.450000  0.250000  0.000000
  0.350000  0.000000  0.000000
  0.450000  0.200000  0.000000
  0.400000  0.050000  0.000000
  0.450000  0.150000  0.000000
  0.450000  0.100000  0.000000
  0.500000  0.300000  0.000000
  0.400000  0.000000  0.000000
  0.500000  0.250000  0.000000
  0.500000  0.200000  0.000000
  0.450000  0.050000  0.000000
  0.500000  0.150000  0.000000
  0.500000  0.100000  0.000000
  0.450000  0.000000  0.000000
  0.550000  0.300000  0.000000
  0.550000  0.250000  0.000000
  0.500000  0.050000  0.000000
  0.550000  0.200000  0.000000
  0.550000  0.150000  0.000000
  0.500000  0.000000  0.000000
  0.550000  0.100000  0.000000
  0.600000  0.300000  0.000000
  0.600000  0.250000  0.000000
  0.550000  0.050000  0.000000
  0.600000  0.200000  0.000000
  0.600000  0.150000  0.000000
  0.550000  0.000000  0.000000
  0.600000  0.100000  0.000000
  0.650000  0.300000  0.000000
  0.600000  0.050000  0.000000
  0.650000  0.250000  0.000000
  0.650000  0.200000  0.000000
  0.650000  0.150000  0.000000
  0.600000  0.000000  0.000000
  0.650000  0.100000  0.000000
  0.650000  0.050000  0.000000
  0.700000  0.300000  0.000000
  0.700000  0.250000  0.000000
  0.700000  0.200000  0.000000
  0.700000  0.150000  0.000000
  0.650000  0.000000  0.000000
  0.700000  0.100000  0.000000
  0.700000  0.050000  0.000000
  0.750000  0.300000  0.000000
  0.750000  0.250000  0.000000
  0.750000  0.200000  0.000000
  0.700000  0.000000  0.000000
  0.750000  0.150000  0.000000
  0.750000  0.100000  0.000000
  0.750000  0.050000  0.000000
  0.800000  0.300000  0.000000
  0.800000  0.250000  0.000000
  0.800000  0.200000  0.000000
  0.750000  0.000000  0.000000
  0.800000  0.150000  0.000000
  0.800000  0.100000  0.000000
  0.800000  0.050000  0.000000
  0.850000  0.300000  0.000000
  0.850000  0.250000  0.000000
  0.800000  0.000000  0.000000
  0.850000  0.200000  0.000000
  0.850000  0.150000  0.000000
  0.850000  0.100000  0.000000
  0.850000  0.050000  0.000000
  0.900000  0.300000  0.000000
  0.850000  0.000000  0.000000
  0.900000  0.250000  0.000000
  0.900000  0.200000  0.000000
  0.900000  0.150000  0.000000
  0.900000  0.100000  0.000000
  0.900000  0.050000  0.000000
  0.900000  0.000000  0.000000
  0.950000  0.300000  0.000000
  0.950000  0.250000  0.000000
  0.950000  0.200000  0.000000
  0.950000  0.150000  0.000000
  0.950000  0.100000  0.000000
  0.950000  0.050000  0.000000
  0.950000  0.000000  0.000000
  1.000000  0.300000  0.000000
  1.000000  0.250000  0.000000
  1.000000  0.200000  0.000000
  1.000000  0.150000  0.000000
  1.000000  0.100000  0.000000
  1.000000  0.050000  0.000000
  1.000000  0.000000  0.000000

CELLS  240  960
  3  35  27  33
  3  27  24  33
  3  37  29  35
  3  29  27  35
  3  41  32  37
  3  32  29  37
  3  46  39  41
  3  39  32  41
  3  50  45  46
  3  45  39  46
  3  56  51  50
  3  51  45  50
  3  62  58  56
  3  58  51  56
  3  68  64  62
  3  64  58  62
  3  74  71  68
  3  71  64  68
  3  80  77  74
  3  77  71  74
  3  87  84  80
  3  84  77  80
  3  94  90  87
  3  90  84  87
  3  101  96  94
  3  96  90  94
  3  107  103  101
  3  103  96  101
  3  114  110  107
  3  110  103  107
  3  120  117  114
  3  117  110  114
  3  126  124  120
  3  124  117  120
  3  132  131  126
  3  131  124  126
  3  139  138  132
  3  138  131  132
  3  146  145  139
  3  145  138  139
  3  27  18  24
  3  18  16  24
  3  29  21  27
  3  21  18  27
  3  32  22  29
  3  22  21  29
  3  39  30  32
  3  30  22  32
  3  45  40  39
  3  40  30  39
  3  51  47  45
  3  47  40  45
  3  58  53  51
  3  53  47  51
  3  64  59  58
  3  59  53  58
  3  71  66  64
  3  66  59  64
  3  77  73  71
  3  73  66  71
  3  84  81  77
  3  81  73  77
  3  90  88  84
  3  88  81  84
  3  96  95  90
  3  95  88  90
  3  103  102  96
  3  102  95  96
  3  110  109  103
  3  109  102  103
  3  117  116  110
  3  116  109  110
  3  124  123  117
  3  123  116  117
  3  131  130  124
  3  130  123  124
  3  138  137  131
  3  137  130  131
  3  145  144  138
  3  144  137  138
  3  18  12  16
  3  12  9  16
  3  21  13  18
  3  13  12  18
  3  22  19  21
  3  19  13  21
  3  30  25  22
  3  25  19  22
  3  40  31  30
  3  31  25  30
  3  47  42  40
  3  42  31  40
  3  53  49  47
  3  49  42  47
  3  59  57  53
  3  57  49  53
  3  66  65  59
  3  65  57  59
  3  73  72  66
  3  72  65  66
  3  81  79  73
  3  79  72  73
  3  88  86  81
  3  86  79  81
  3  95  93  88
  3  93  86  88
  3  102  100  95
  3  100  93  95
  3  109  108  102
  3  108  100  102
  3  116  115  109
  3  115  108  109
  3  123  122  116
  3  122  115  116
  3  130  129  123
  3  129  122  123
  3  137  136  130
  3  136  129  130
  3  144  143  137
  3  143  136  137
  3  12  7  9
  3  7  4  9
  3  13  8  12
  3  8  7  12
  3  19  14  13
  3  14  8  13
  3  25  20  19
  3  20  14  19
  3  31  28  25
  3  28  20  25
  3  42  38  31
  3  38  28  31
  3  49  48  42
  3  48  38  42
  3  57  55  49
  3  55  48  49
  3  65  63  57
  3  63  55  57
  3  72  70  65
  3  70  63  65
  3  79  78  72
  3  78  70  72
  3  86  85  79
  3  85  78  79
  3  93  92  86
  3  92  85  86
  3  100  99  93
  3  99  92  93
  3  108  106  100
  3  106  99  100
  3  115  113  108
  3  113  106  108
  3  122  121  115
  3  121  113  115
  3  129  128  122
  3  128  121  122
  3  136  135  129
  3  135  128  129
  3  143  142  136
  3  142  135  136
  3  7  3  4
  3  3  1  4
  3  8  6  7
  3  6  3  7
  3  14  11  8
  3  11  6  8
  3  20  17  14
  3  17  11  14
  3  28  26  20
  3  26  17  20
  3  38  36  28
  3  36  26  28
  3  48  44  38
  3  44  36  38
  3  55  54  48
  3  54  44  48
  3  63  61  55
  3  61  54  55
  3  70  69  63
  3  69  61  63
  3  78  76  70
  3  76  69  70
  3  85  83  78
  3  83  76  78
  3  92  91  85
  3  91  83  85
  3  99  98  92
  3  98  91  92
  3  106  105  99
  3  105  98  99
  3  113  112  106
  3  112  105  106
  3  121  119  113
  3  119  112  113
  3  128  127  121
  3  127  119  121
  3  135  134  128
  3  134  127  128
  3  142  141  135
  3  141  134  135
  3  3  2  1
  3  2  0  1
  3  6  5  3
  3  5  2  3
  3  11  10  6
  3  10  5  6
  3  17  15  11
  3  15  10  11
  3  26  23  17
  3  23  15  17
  3  36  34  26
  3  34  23  26
  3  44  43  36
  3  43  34  36
  3  54  52  44
  3  52  43  44
  3  61  60  54
  3  60  52  54
  3  69  67  61
  3  67  60  61
  3  76  75  69
  3  75  67  69
  3  83  82  76
  3  82  75  76
  3  91  89  83
  3  89  82  83
  3  98  97  91
  3  97  89  91
  3  105  104  98
  3  104  97  98
  3  112  111  105
  3  111  104  105
  3  119  118  112
  3  118  111  112
  3  127  125  119
  3  125  118  119
  3  134  133  127
  3  133  125  127
  3  141  140  134
  3  140  133  134

CELL_TYPES 240
5
5
5
5
5
5
5
5
5
5
5
5
5
5
5
5
5
5
5
5
5
5
5
5
5
5
5
5
5
5
5
5
5
5
5
5
5
5
5
5
5
5
5
5
5
5
5
5
5
5
5
5
5
5
5
5
5
5
5
5
5
5
5
5
5
5
5
5
5
5
5
5
5
5
5
5
5
5
5
5
5
5
5
5
5
5
5
5
5
5
5
5
5
5
5
5
5
5
5
5
5
5
5
5
5
5
5
5
5
5
5
5
5
5
5
5
5
5
5
5
5
5
5
5
5
5
5
5
5
5
5
5
5
5
5
5
5
5
5
5
5
5
5
5
5
5
5
5
5
5
5
5
5
5
5
5
5
5
5
5
5
5
5
5
5
5
5
5
5
5
5
5
5
5
5
5
5
5
5
5
5
5
5
5
5
5
5
5
5
5
5
5
5
5
5
5
5
5
5
5
5
5
5
5
5
5
5
5
5
5
5
5
5
5
5
5
5
5
5
5
5
5
5
5
5
5
5
5
5
5
5
5
5
5
5
5
5
5
5
5
POINT_DATA 147
VECTORS disp_sens_pert_x_6 double
  -0.104562  0.098626  0
  -0.003864  -0.011577  0
  -0.016893  0.011533  0
  0.004177  -0.002567  0
  0.000264  -0.002589  0
  0.118493  -0.132527  0
  -0.008370  0.010499  0
  0.002644  -0.003104  0
  -0.001702  0.005231  0
  0.002377  -0.000202  0
  0.004585  -0.003600  0
  -0.002610  -0.001853  0
  0.001523  -0.001405  0
  -0.000155  0.002096  0
  -0.001682  0.000244  0
  0.001844  -0.000142  0
  0.001182  0.002337  0
  -0.000282  -0.000964  0
  0.000596  -0.000515  0
  -0.000793  0.000614  0
  -0.000719  -0.000349  0
  0.000011  0.000881  0
  -0.000410  0.000521  0
  0.000625  0.000186  0
  -0.004852  0.008693  0
  -0.000570  0.000004  0
  0.000178  -0.000357  0
  -0.000214  0.000192  0
  -0.000214  -0.000249  0
  -0.000250  0.000806  0
  -0.000378  0.000109  0
  -0.000285  -0.000107  0
  -0.000291  0.000273  0
  -0.021331  0.036918  0
  0.000183  0.000138  0
  0.001803  -0.000957  0
  0.000173  -0.000100  0
  0.001726  -0.000167  0
  -0.000030  -0.000120  0
  -0.000223  -0.000025  0
  -0.000233  -0.000039  0
  0.001025  0.000438  0
  -0.000117  -0.000085  0
  0.000041  0.000070  0
  0.000101  -0.000012  0
  -0.000127  -0.000101  0
  0.000491  0.000468  0
  -0.000118  -0.000062  0
  0.000016  -0.000046  0
  -0.000039  -0.000049  0
  0.000191  0.000322  0
  -0.000057  -0.000087  0
  0.000002  0.000030  0
  -0.000051  -0.000046  0
  0.000047  0.000010  0
  0.000019  -0.000013  0
  0.000055  0.000182  0
  -0.000009  -0.000023  0
  -0.000020  -0.000055  0
  -0.000019  -0.000027  0
  -0.000005  0.000011  0
  0.000019  0.000010  0
  0.000005  0.000089  0
  0.000012  -0.000001  0
  -0.000004  -0.000029  0
  -0.000000  -0.000010  0
  -0.000006  -0.000014  0
  -0.000004  0.000003  0
  -0.000008  0.000039  0
  0.000006  0.000006  0
  0.000006  0.000002  0
  0.000001  -0.000014  0
  0.000002  -0.000003  0
  -0.000001  -0.000006  0
  -0.000008  0.000015  0
  -0.000002  0.000001  0
  0.000002  0.000003  0
  0.000002  -0.000006  0
  0.000002  0.000002  0
  0.000001  -0.000001  0
  -0.000005  0.000005  0
  0.000000  -0.000003  0
  -0.000001  -0.000000  0
  0.000000  0.000001  0
  0.000001  -0.000002  0
  0.000001  0.000001  0
  0.000001  -0.000000  0
  -0.000003  0.000001  0
  0.000000  -0.000001  0
  -0.000000  -0.000000  0
  0.000001  -0.000001  0
  -0.000000  0.000000  0
  0.000000  0.000000  0
  0.000000  0.000000  0
  -0.000001  0.000000  0
  0.000000  -0.000000  0
  0.000000  -0.000000  0
  -0.000000  -0.000000  0
  -0.000000  0.000000  0
  0.000000  0.000000  0
  0.000000  0.000000  0
  -0.000001  -0.000000  0
  0.000000  -0.000000  0
  0.000000  -0.000000  0
  -0.000000  -0.000000  0
  -0.000000  0.000000  0
  -0.000000  0.000000  0
  -0.000000  -0.000000  0
  0.000000  0.000000  0
  0.000000  0.000000  0
  0.000000  0.000000  0
  -0.000000  0.000000  0
  -0.000000  -0.000000  0
  -0.000000  0.000000  0
  -0.000000  -0.000000  0
  -0.000000  0.000000  0
  0.000000  0.000000  0
  0.000000  0.000000  0
  -0.000000  0.000000  0
  0.000000  -0.000000  0
  -0.000000  -0.000000  0
  -0.000000  0.000000  0
  -0.000000  0.000000  0
  0.000000  0.000000  0
  0.000000  0.000000  0
  -0.000000  0.000000  0
  0.000000  -0.000000  0
  0.000000  -0.000000  0
  -0.000000  -0.000000  0
  -0.000000  0.000000  0
  -0.000000  0.000000  0
  0.000000  0.000000  0
  0.000000  0.000000  0
  -0.000000  -0.000000  0
  0.000000  0.000000  0
  -0.000000  -0.000000  0
  -0.000000  -0.000000  0
  -0.000000  -0.000000  0
  0.000000  0.000000  0
  0.000000  0.000000  0
  0.027051  -0.017342  0
  -0.000000  0.000000  0
  0.000000  0.000000  0
  0.000000  0.000000  0
  0.000000  0.000000  0
  0.000000  0.000000  0
  -0.000000  0.000000  0
VECTORS disp_sens_pert_x_14 double
  -0.015673  0.062921  0
  -0.007538  0.002446  0
  0.000926  0.001935  0
  0.000578  0.000354  0
  -0.007695  0.003743  0
  0.000689  -0.002075  0
  0.000852  -0.001239  0
  0.000794  0.001251  0
  0.004115  -0.004690  0
  -0.003011  0.001972  0
  -0.000101  -0.000488  0
  -0.000152  0.001695  0
  -0.007583  0.004189  0
  -0.000572  -0.123842  0
  -0.001605  0.002162  0
  -0.000094  -0.000344  0
  0.010785  0.003805  0
  -0.000160  0.000382  0
  0.002285  -0.001552  0
  0.004350  -0.003243  0
  -0.000897  0.000592  0
  -0.004209  0.004115  0
  -0.000979  -0.000994  0
  -0.000085  -0.000194  0
  0.011006  0.011706  0
  0.001855  -0.000468  0
  -0.000175  0.000038  0
  0.000059  -0.000762  0
  -0.000360  0.000273  0
  -0.000835  0.002272  0
  0.000104  -0.000514  0
  0.000698  -0.000037  0
  -0.000580  -0.000216  0
  0.012372  0.043755  0
  -0.000040  -0.000081  0
  0.001706  -0.000689  0
  -0.000120  -0.000014  0
  0.000067  0.002116  0
  -0.000156  0.000112  0
  -0.000143  -0.000391  0
  0.000220  -0.000199  0
  -0.000483  0.001210  0
  0.000248  0.000022  0
  -0.000010  -0.000028  0
  -0.000069  -0.000012  0
  0.000017  -0.000228  0
  -0.000414  0.000548  0
  0.000146  -0.000073  0
  -0.000073  0.000042  0
  0.000082  0.000018  0
  -0.000238  0.000226  0
  0.000040  -0.000106  0
  0.000001  -0.000009  0
  0.000075  -0.000026  0
  -0.000034  -0.000006  0
  -0.000036  0.000015  0
  -0.000110  0.000087  0
  0.000024  0.000010  0
  0.000027  -0.000044  0
  0.000033  -0.000009  0
  0.000003  -0.000003  0
  -0.000015  -0.000003  0
  -0.000041  0.000031  0
  -0.000017  0.000005  0
  0.000013  -0.000017  0
  0.000005  0.000004  0
  0.000013  -0.000003  0
  0.000003  -0.000001  0
  -0.000012  0.000010  0
  -0.000006  -0.000001  0
  -0.000008  0.000002  0
  0.000005  -0.000006  0
  0.000000  0.000002  0
  0.000004  -0.000001  0
  -0.000001  0.000003  0
  0.000001  -0.000000  0
  -0.000002  -0.000000  0
  0.000001  -0.000002  0
  -0.000003  0.000001  0
  -0.000001  0.000001  0
  0.000001  0.000001  0
  0.000001  -0.000000  0
  0.000001  -0.000000  0
  -0.000000  -0.000000  0
  0.000000  -0.000001  0
  -0.000001  0.000000  0
  -0.000001  0.000000  0
  0.000001  0.000000  0
  0.000000  0.000000  0
  0.000000  -0.000000  0
  -0.000000  -0.000000  0
  -0.000000  -0.000000  0
  -0.000000  0.000000  0
  -0.000000  0.000000  0
  0.000001  -0.000000  0
  -0.000000  0.000000  0
  -0.000000  -0.000000  0
  0.000000  -0.000000  0
  0.000000  -0.000000  0
  -0.000000  0.000000  0
  -0.000000  0.000000  0
  0.000000  -0.000000  0
  -0.000000  0.000000  0
  -0.000000  -0.000000  0
  0.000000  -0.000000  0
  0.000000  -0.000000  0
  -0.000000  -0.000000  0
  0.000000  -0.000000  0
  -0.000000  0.000000  0
  -0.000000  0.000000  0
  -0.000000  0.000000  0
  0.000000  -0.000000  0
  0.000000  -0.000000  0
  0.000000  -0.000000  0
  0.000000  -0.000000  0
  -0.000000  0.000000  0
  -0.000000  0.000000  0
  -0.000000  0.000000  0
  -0.000000  -0.000000  0
  0.000000  -0.000000  0
  0.000000  -0.000000  0
  0.000000  -0.000000  0
  0.000000  -0.000000  0
  -0.000000  0.000000  0
  -0.000000  0.000000  0
  0.000000  -0.000000  0
  0.000000  -0.000000  0
  -0.000000  0.000000  0
  0.000000  -0.000000  0
  0.000000  -0.000000  0
  -0.000000  0.000000  0
  -0.000000  0.000000  0
  -0.000000  0.000000  0
  0.000000  -0.000000  0
  -0.000000  0.000000  0
  0.000000  0.000000  0
  0.000000  -0.000000  0
  0.000000  -0.000000  0
  -0.000000  0.000000  0
  -0.000000  0.000000  0
  0.000125  -0.011419  0
  -0.000000  0.000000  0
  -0.000000  0.000000  0
  -0.000000  0.000000  0
  -0.000000  0.000000  0
  -0.000000  0.000000  0
  -0.000000  0.000000  0
VECTORS disp_sens_pert_x_38 double
  0.031009  0.056159  0
  -0.000811  0.001392  0
  0.004258  0.002854  0
  0.000660  -0.000234  0
  -0.002841  0.002185  0
  0.001325  -0.000230  0
  0.000403  0.000353  0
  0.000433  -0.000989  0
  0.000227  -0.000858  0
  -0.002013  0.002244  0
  0.000479  -0.000403  0
  0.000226  0.000737  0
  0.000902  -0.000525  0
  0.000576  -0.002177  0
  -0.000106  0.000671  0
  0.000172  -0.000349  0
  0.004682  0.003520  0
  0.000285  0.000457  0
  0.001619  0.000842  0
  -0.000426  0.000982  0
  0.000159  0.000552  0
  0.001918  -0.004929  0
  -0.000917  0.002222  0
  0.000038  -0.000232  0
  0.026816  0.009440  0
  0.000053  0.000714  0
  0.000237  0.000213  0
  0.002376  0.005257  0
  0.000190  0.000303  0
  0.008050  -0.011938  0
  -0.000328  0.000856  0
  0.000086  0.000325  0
  -0.003291  0.003844  0
  0.076002  0.062707  0
  -0.000011  -0.000133  0
  -0.007212  0.002870  0
  0.000150  0.000064  0
  -0.119528  -0.116306  0
  0.000130  0.000124  0
  -0.002180  0.000579  0
  -0.000238  0.000266  0
  0.003276  -0.004126  0
  0.000051  0.000132  0
  -0.000022  -0.000067  0
  0.000077  0.000001  0
  -0.000831  0.000443  0
  0.001454  -0.001515  0
  -0.000107  0.000140  0
  0.000073  0.000039  0
  0.000032  0.000057  0
  0.000480  -0.000756  0
  -0.000288  0.000264  0
  -0.000018  -0.000029  0
  -0.000037  0.000080  0
  0.000033  -0.000016  0
  0.000036  0.000007  0
  0.000123  -0.000363  0
  0.000019  0.000024  0
  -0.000089  0.000135  0
  -0.000008  0.000042  0
  -0.000011  -0.000011  0
  0.000011  -0.000014  0
  0.000012  -0.000162  0
  0.000016  -0.000003  0
  -0.000022  0.000063  0
  0.000011  0.000009  0
  0.000001  0.000020  0
  -0.000006  -0.000003  0
  -0.000012  -0.000066  0
  0.000003  -0.000008  0
  0.000007  -0.000004  0
  -0.000003  0.000027  0
  0.000006  0.000003  0
  0.000002  0.000009  0
  -0.000012  -0.000024  0
  -0.000002  -0.000000  0
  0.000000  -0.000004  0
  0.000002  0.000011  0
  0.000002  -0.000003  0
  0.000003  0.000000  0
  -0.000007  -0.000008  0
  0.000002  0.000003  0
  -0.000001  0.000000  0
  -0.000000  -0.000002  0
  0.000002  0.000004  0
  0.000001  -0.000001  0
  0.000001  -0.000000  0
  -0.000004  -0.000002  0
  0.000001  0.000001  0
  -0.000000  0.000000  0
  0.000001  0.000001  0
  -0.000000  -0.000001  0
  0.000000  -0.000001  0
  0.000000  -0.000000  0
  -0.000002  -0.000000  0
  0.000001  0.000000  0
  0.000000  0.000000  0
  -0.000000  0.000000  0
  -0.000000  -0.000000  0
  -0.000000  -0.000000  0
  0.000000  -0.000000  0
  -0.000001  0.000000  0
  0.000000  0.000000  0
  0.000000  0.000000  0
  -0.000000  0.000000  0
  -0.000000  -0.000000  0
  -0.000000  -0.000000  0
  -0.000000  0.000000  0
  0.000000  -0.000000  0
  0.000000  -0.000000  0
  0.000000  -0.000000  0
  -0.000000  -0.000000  0
  -0.000000  0.000000  0
  -0.000000  -0.000000  0
  -0.000000  0.000000  0
  -0.000000  -0.000000  0
  0.000000  -0.000000  0
  0.000000  -0.000000  0
  -0.000000  -0.000000  0
  0.000000  0.000000  0
  0.000000  0.000000  0
  -0.000000  -0.000000  0
  -0.000000  -0.000000  0
  0.000000  -0.000000  0
  0.000000  -0.000000  0
  -0.000000  -0.000000  0
  0.000000  0.000000  0
  0.000000  0.000000  0
  -0.000000  0.000000  0
  -0.000000  -0.000000  0
  -0.000000  -0.000000  0
  0.000000  -0.000000  0
  0.000000  -0.000000  0
  -0.000000  -0.000000  0
  0.000000  -0.000000  0
  0.000000  0.000000  0
  -0.000000  0.000000  0
  -0.000000  0.000000  0
  0.000000  -0.000000  0
  -0.000000  -0.000000  0
  -0.027780  -0.017716  0
  -0.000000  -0.000000  0
  -0.000000  -0.000000  0
  -0.000000  -0.000000  0
  0.000000  -0.000000  0
  0.000000  -0.000000  0
  0.000000  -0.000000  0
VECTORS disp_sens_pert_x_68 double
  -0.089546  0.239022  0
  -0.016424  0.018847  0
  -0.009440  0.026145  0
  -0.002000  0.003217  0
  -0.002723  -0.002647  0
  -0.003377  0.008939  0
  -0.001138  0.002817  0
  0.000332  -0.001635  0
  -0.000323  0.000687  0
  0.004603  -0.008426  0
  -0.002458  0.005355  0
  -0.000648  0.001928  0
  0.000804  -0.001735  0
  0.000056  0.000124  0
  -0.000387  0.001204  0
  -0.002078  0.003653  0
  0.004013  0.008253  0
  -0.000425  0.001388  0
  0.000799  -0.000952  0
  -0.000241  0.000962  0
  -0.000341  0.001198  0
  0.000077  0.000603  0
  -0.000217  0.001177  0
  -0.001824  0.002547  0
  -0.006142  0.058803  0
  -0.000308  0.001123  0
  -0.000288  0.001014  0
  0.000278  0.001241  0
  -0.000261  0.001018  0
  0.000079  0.001418  0
  -0.000302  0.001178  0
  -0.000294  0.001005  0
  -0.000119  0.001246  0
  -0.024587  0.171002  0
  -0.001646  0.001757  0
  0.002680  -0.007047  0
  -0.000139  0.000718  0
  0.003345  -0.009666  0
  -0.000161  0.000814  0
  -0.000251  0.001186  0
  -0.000336  0.001015  0
  0.003231  -0.008325  0
  -0.000262  0.000801  0
  -0.001578  0.001195  0
  0.000095  0.000499  0
  -0.000338  0.001059  0
  0.002966  -0.006725  0
  -0.000351  0.000776  0
  -0.000045  0.000638  0
  -0.000236  0.000546  0
  0.002654  -0.005156  0
  -0.000394  0.000839  0
  -0.001683  0.000797  0
  -0.000335  0.000495  0
  0.000504  0.000452  0
  0.000023  0.000403  0
  0.002324  -0.003722  0
  -0.000191  0.000240  0
  -0.000404  0.000561  0
  -0.000250  0.000234  0
  -0.002000  0.000545  0
  0.001053  0.000613  0
  0.001978  -0.002469  0
  0.000038  -0.000104  0
  -0.000346  0.000289  0
  -0.000002  0.000025  0
  -0.000089  0.000088  0
  0.036894  -0.302779  0
  0.001605  -0.001423  0
  -0.002007  0.001378  0
  -0.000593  0.001272  0
  -0.000224  0.000092  0
  -0.000284  0.000814  0
  -0.000186  0.000446  0
  0.001200  -0.000607  0
  0.001062  -0.000584  0
  -0.000449  -0.000458  0
  -0.000192  0.000153  0
  -0.000410  0.000003  0
  -0.000294  0.000181  0
  0.000729  0.000015  0
  -0.000202  0.000169  0
  0.000347  -0.000032  0
  0.000013  -0.000202  0
  -0.000151  0.000039  0
  -0.000130  -0.000107  0
  -0.000153  -0.000008  0
  0.000353  0.000175  0
  -0.000130  0.000026  0
  0.000094  0.000023  0
  -0.000090  -0.000020  0
  0.000058  -0.000056  0
  -0.000018  -0.000060  0
  -0.000058  -0.000030  0
  0.000138  0.000142  0
  -0.000063  -0.000012  0
  -0.000043  -0.000028  0
  0.000021  0.000013  0
  0.000031  -0.000008  0
  0.000009  -0.000023  0
  -0.000015  -0.000019  0
  0.000042  0.000080  0
  -0.000025  -0.000013  0
  -0.000017  -0.000019  0
  0.000004  0.000004  0
  0.000010  0.000003  0
  0.000009  -0.000006  0
  0.000008  0.000036  0
  -0.000001  -0.000008  0
  -0.000008  -0.000008  0
  -0.000006  -0.000009  0
  0.000001  0.000000  0
  0.000002  0.000002  0
  0.000005  -0.000000  0
  -0.000001  0.000013  0
  0.000002  -0.000002  0
  -0.000002  -0.000003  0
  -0.000002  -0.000004  0
  0.000001  -0.000000  0
  -0.000001  0.000001  0
  -0.000002  0.000004  0
  0.000002  0.000001  0
  0.000001  -0.000000  0
  -0.000000  -0.000001  0
  -0.000001  -0.000001  0
  0.000000  -0.000000  0
  -0.000001  0.000000  0
  -0.000001  -0.000000  0
  0.000000  0.000000  0
  0.000001  0.000000  0
  0.000000  -0.000000  0
  -0.000000  -0.000000  0
  -0.000000  -0.000000  0
  0.000000  0.000000  0
  -0.000000  -0.000000  0
  0.000000  0.000000  0
  0.000000  0.000000  0
  0.000000  0.000000  0
  -0.000000  -0.000000  0
  0.000000  -0.000000  0
  0.108053  -0.223460  0
  0.000001  -0.000001  0
  0.000002  -0.000003  0
  0.000001  -0.000002  0
  0.000000  -0.000001  0
  0.000000  -0.000000  0
  0.000000  -0.000000  0
VECTORS disp_sens_pert_x_73 double
  -0.026263  0.239071  0
  -0.008548  0.018850  0
  -0.001328  0.026132  0
  -0.000692  0.003235  0
  -0.004223  -0.002629  0
  0.000003  0.008911  0
  -0.000309  0.002845  0
  -0.000164  -0.001611  0
  -0.000198  0.000723  0
  0.000621  -0.008437  0
  0.000081  0.005298  0
  -0.000116  0.001977  0
  -0.000018  -0.001730  0
  -0.000094  0.000136  0
  -0.000137  0.001259  0
  0.000074  0.003545  0
  0.005888  0.008235  0
  -0.000042  0.001472  0
  0.000055  -0.000968  0
  -0.000095  0.000985  0
  -0.000109  0.001280  0
  -0.000021  0.000588  0
  -0.000010  0.001166  0
  0.000080  0.002355  0
  0.012490  0.058809  0
  -0.000105  0.001161  0
  -0.000018  0.001151  0
  0.000129  0.001214  0
  -0.000118  0.001132  0
  -0.000026  0.001387  0
  0.000024  0.001176  0
  -0.000163  0.001063  0
  -0.000017  0.001217  0
  0.021378  0.170935  0
  0.000113  0.001439  0
  0.000828  -0.007045  0
  -0.000005  0.000920  0
  0.000292  -0.009672  0
  -0.000142  0.000960  0
  0.000039  0.001178  0
  0.000066  0.001026  0
  0.000159  -0.008348  0
  -0.000302  0.000898  0
  0.000166  0.000710  0
  0.000028  0.000743  0
  0.000101  0.001107  0
  0.000080  -0.006772  0
  0.000123  0.000807  0
  -0.000139  0.000819  0
  -0.000579  0.000767  0
  0.000050  -0.005233  0
  0.000145  0.000972  0
  0.000215  0.000128  0
  0.000228  0.000541  0
  0.000111  0.000580  0
  -0.000014  0.000723  0
  0.000062  -0.003821  0
  -0.001086  0.000822  0
  0.000140  0.000751  0
  0.000446  0.000257  0
  0.000210  -0.000315  0
  0.000237  0.000317  0
  0.000094  -0.002579  0
  0.000430  0.000572  0
  0.000035  0.000312  0
  -0.001801  0.001817  0
  0.000451  -0.000614  0
  0.000100  -0.000533  0
  0.000135  -0.001518  0
  0.000243  -0.000307  0
  0.001202  -0.001440  0
  0.000057  -0.000352  0
  0.000665  -0.304647  0
  -0.001118  0.001784  0
  0.000192  -0.000614  0
  -0.000040  -0.000146  0
  -0.000057  0.000338  0
  -0.000265  0.000654  0
  -0.000403  0.000702  0
  0.001267  -0.001025  0
  -0.000191  0.000797  0
  -0.000161  -0.000346  0
  -0.000033  -0.000078  0
  -0.000062  0.000050  0
  -0.000119  -0.000130  0
  -0.000225  0.000157  0
  0.000481  -0.000105  0
  -0.000257  0.000385  0
  0.000089  -0.000135  0
  -0.000023  -0.000034  0
  0.000003  -0.000122  0
  -0.000045  -0.000005  0
  -0.000088  0.000055  0
  0.000152  0.000001  0
  -0.000155  0.000142  0
  0.000076  -0.000040  0
  0.000026  -0.000056  0
  -0.000009  -0.000009  0
  -0.000022  -0.000007  0
  -0.000036  0.000017  0
  0.000041  0.000008  0
  -0.000069  0.000047  0
  0.000037  -0.000010  0
  0.000018  -0.000021  0
  -0.000003  -0.000001  0
  -0.000008  -0.000003  0
  -0.000015  0.000004  0
  -0.000024  0.000014  0
  0.000008  0.000004  0
  0.000014  -0.000002  0
  0.000008  -0.000007  0
  -0.000001  0.000000  0
  -0.000001  -0.000001  0
  -0.000006  0.000001  0
  -0.000006  0.000004  0
  -0.000000  0.000002  0
  0.000004  -0.000000  0
  0.000003  -0.000002  0
  -0.000001  0.000000  0
  0.000001  -0.000000  0
  -0.000000  0.000001  0
  -0.000002  -0.000000  0
  -0.000001  0.000001  0
  0.000001  0.000000  0
  0.000001  -0.000000  0
  -0.000000  0.000000  0
  0.000000  0.000000  0
  0.000001  0.000000  0
  -0.000001  -0.000000  0
  -0.000001  0.000000  0
  -0.000000  0.000000  0
  0.000000  -0.000000  0
  0.000000  -0.000000  0
  -0.000000  0.000000  0
  0.000000  0.000000  0
  0.000000  -0.000000  0
  -0.000000  0.000000  0
  -0.000000  0.000000  0
  0.000000  0.000000  0
  0.000000  -0.000000  0
  -0.000174  -0.219992  0
  -0.000001  0.000000  0
  -0.000001  0.000000  0
  0.000000  0.000000  0
  0.000000  0.000000  0
  0.000000  -0.000000  0
  -0.000000  -0.000000  0
VECTORS disp_sens_pert_x_81 double
  0.037359  0.239094  0
  -0.000758  0.018844  0
  0.006860  0.026123  0
  0.000604  0.003239  0
  -0.005772  -0.002612  0
  0.003430  0.008897  0
  0.000523  0.002852  0
  -0.000659  -0.001595  0
  -0.000035  0.000741  0
  -0.003387  -0.008437  0
  0.002645  0.005273  0
  0.000439  0.001985  0
  -0.000866  -0.001718  0
  -0.000253  0.000157  0
  0.000212  0.001282  0
  0.002201  0.003504  0
  0.007798  0.008216  0
  0.000402  0.001480  0
  -0.000752  -0.000971  0
  0.000090  0.001021  0
  0.000323  0.001302  0
  -0.000227  0.000593  0
  0.000038  0.001194  0
  0.001847  0.002295  0
  0.031151  0.058813  0
  0.000243  0.001219  0
  0.000380  0.001150  0
  -0.000070  0.001191  0
  0.000375  0.001138  0
  -0.000253  0.001359  0
  0.000127  0.001247  0
  0.000322  0.001139  0
  -0.000149  0.001186  0
  0.067070  0.170902  0
  0.001519  0.001370  0
  -0.000957  -0.007049  0
  0.000363  0.000894  0
  -0.002665  -0.009688  0
  0.000408  0.000918  0
  -0.000069  0.001162  0
  0.000185  0.001174  0
  -0.002799  -0.008391  0
  0.000397  0.000969  0
  0.001193  0.000660  0
  0.000345  0.000669  0
  -0.000052  0.001147  0
  -0.002704  -0.006866  0
  0.000272  0.001075  0
  0.000431  0.000671  0
  0.000489  0.000744  0
  -0.002545  -0.005413  0
  -0.000058  0.001156  0
  0.000864  0.000157  0
  0.000437  0.000951  0
  0.000317  0.000455  0
  0.000423  0.000393  0
  -0.002438  -0.004117  0
  0.000574  0.000429  0
  0.000030  0.001252  0
  0.000715  0.000717  0
  0.000545  -0.000131  0
  0.000259  0.000254  0
  -0.002519  -0.002950  0
  0.000342  0.000093  0
  0.000452  0.001449  0
  0.000556  -0.000058  0
  0.001014  0.000057  0
  0.000277  -0.000201  0
  -0.002937  -0.001655  0
  0.000169  0.000124  0
  0.000156  -0.000103  0
  0.001638  0.001385  0
  0.000243  -0.000681  0
  0.000679  -0.002057  0
  -0.003573  0.001173  0
  0.000109  -0.000124  0
  0.000096  0.000152  0
  0.002809  -0.005001  0
  0.000007  0.000251  0
  -0.000134  0.000426  0
  -0.037343  -0.297634  0
  -0.000338  0.000833  0
  0.000040  -0.000070  0
  0.000077  0.000070  0
  -0.000811  0.001519  0
  0.000058  0.000160  0
  0.000029  0.000256  0
  0.000876  -0.001436  0
  -0.000051  0.000327  0
  0.000012  -0.000034  0
  -0.000586  0.000147  0
  0.000045  0.000018  0
  0.000051  0.000072  0
  0.000038  0.000106  0
  0.000345  -0.000441  0
  -0.000039  0.000088  0
  -0.000197  0.000098  0
  0.000003  -0.000013  0
  0.000019  -0.000002  0
  0.000029  0.000023  0
  0.000021  0.000036  0
  0.000090  -0.000183  0
  -0.000013  0.000035  0
  -0.000058  0.000051  0
  0.000001  -0.000004  0
  0.000005  -0.000005  0
  0.000013  0.000004  0
  0.000015  -0.000071  0
  0.000011  0.000011  0
  -0.000002  0.000014  0
  -0.000015  0.000022  0
  0.000001  -0.000001  0
  -0.000000  -0.000003  0
  0.000005  -0.000001  0
  -0.000002  -0.000023  0
  0.000005  0.000002  0
  0.000001  0.000005  0
  -0.000003  0.000008  0
  0.000001  0.000000  0
  -0.000001  -0.000001  0
  -0.000003  -0.000006  0
  0.000001  -0.000001  0
  0.000002  -0.000000  0
  0.000001  0.000001  0
  -0.000001  0.000002  0
  0.000000  -0.000000  0
  -0.000001  -0.000001  0
  -0.000000  0.000000  0
  0.000000  -0.000001  0
  0.000001  -0.000001  0
  0.000000  -0.000000  0
  -0.000000  0.000000  0
  -0.000000  0.000000  0
  0.000000  -0.000000  0
  0.000000  0.000000  0
  -0.000000  -0.000000  0
  -0.000000  -0.000000  0
  0.000000  -0.000000  0
  -0.000000  0.000000  0
  0.000000  0.000000  0
  -0.108410  -0.223751  0
  0.000002  0.000002  0
  0.000003  0.000003  0
  0.000002  0.000003  0
  0.000001  0.000001  0
  0.000000  0.000000  0
  0.000000  0.000000  0
VECTORS disp_sens_pert_x_141 double
  -0.089634  0.450578  0
  -0.016402  0.044962  0
  -0.009468  0.053308  0
  -0.001995  0.007573  0
  -0.002696  -0.007727  0
  -0.003399  0.020268  0
  -0.001138  0.005614  0
  0.000343  -0.003275  0
  -0.000319  0.001185  0
  0.004609  -0.021753  0
  -0.002479  0.013819  0
  -0.000657  0.003795  0
  0.000819  -0.004523  0
  0.000073  -0.000398  0
  -0.000394  0.002235  0
  -0.002090  0.010696  0
  0.003992  0.014557  0
  -0.000456  0.002877  0
  0.000811  -0.003549  0
  -0.000223  0.001503  0
  -0.000372  0.002358  0
  0.000103  0.000080  0
  -0.000173  0.001579  0
  -0.001804  0.008485  0
  -0.006146  0.120960  0
  -0.000293  0.002015  0
  -0.000369  0.002339  0
  0.000281  0.000648  0
  -0.000334  0.002163  0
  0.000097  0.000854  0
  -0.000234  0.001856  0
  -0.000287  0.001971  0
  -0.000074  0.001194  0
  -0.024527  0.323713  0
  -0.001544  0.006685  0
  0.002661  -0.013106  0
  -0.000326  0.001956  0
  0.003314  -0.019681  0
  -0.000301  0.001887  0
  -0.000162  0.001515  0
  -0.000239  0.001807  0
  0.003186  -0.018374  0
  -0.000266  0.001773  0
  -0.001300  0.005172  0
  -0.000298  0.001648  0
  -0.000192  0.001618  0
  0.002907  -0.016167  0
  -0.000228  0.001655  0
  -0.000274  0.001614  0
  -0.000244  0.001545  0
  0.002589  -0.013762  0
  -0.000193  0.001547  0
  -0.001072  0.003904  0
  -0.000212  0.001463  0
  -0.000277  0.001385  0
  -0.000252  0.001364  0
  0.002271  -0.011435  0
  -0.000224  0.001319  0
  -0.000180  0.001389  0
  -0.000195  0.001261  0
  -0.000861  0.002856  0
  -0.000258  0.001154  0
  0.001968  -0.009308  0
  -0.000231  0.001139  0
  -0.000165  0.001202  0
  -0.000205  0.001108  0
  -0.000179  0.001065  0
  -0.000671  0.002010  0
  0.001686  -0.007430  0
  -0.000238  0.000948  0
  -0.000211  0.000935  0
  -0.000149  0.001013  0
  -0.000187  0.000913  0
  -0.000163  0.000881  0
  0.001426  -0.005807  0
  -0.000501  0.001344  0
  -0.000218  0.000763  0
  -0.000134  0.000836  0
  -0.000189  0.000751  0
  -0.000168  0.000735  0
  0.001187  -0.004430  0
  -0.000149  0.000713  0
  -0.000353  0.000840  0
  -0.000197  0.000598  0
  -0.000122  0.000675  0
  -0.000166  0.000585  0
  -0.000147  0.000575  0
  0.000969  -0.003282  0
  -0.000135  0.000561  0
  -0.000228  0.000476  0
  -0.000113  0.000532  0
  -0.000175  0.000452  0
  -0.000140  0.000437  0
  -0.000125  0.000432  0
  0.000771  -0.002342  0
  -0.000120  0.000424  0
  -0.000105  0.000404  0
  -0.000123  0.000229  0
  -0.000154  0.000328  0
  -0.000113  0.000311  0
  -0.000102  0.000308  0
  0.000592  -0.001588  0
  -0.000102  0.000302  0
  -0.000093  0.000286  0
  -0.000035  0.000071  0
  -0.000142  0.000236  0
  -0.000090  0.000210  0
  0.000430  -0.001002  0
  -0.000079  0.000204  0
  -0.000081  0.000194  0
  -0.000073  0.000176  0
  0.000050  -0.000034  0
  -0.000149  0.000186  0
  -0.000077  0.000140  0
  0.000286  -0.000564  0
  -0.000060  0.000121  0
  -0.000053  0.000099  0
  -0.000040  0.000079  0
  0.000156  -0.000125  0
  -0.000196  0.000196  0
  0.000163  -0.000259  0
  -0.000082  0.000101  0
  -0.000043  0.000050  0
  -0.000017  0.000026  0
  -0.000001  0.000014  0
  0.000302  -0.000228  0
  0.000067  -0.000072  0
  -0.000289  0.000259  0
  -0.000106  0.000055  0
  -0.000012  -0.000002  0
  0.000015  -0.000006  0
  0.000021  0.000003  0
  0.000005  0.000015  0
  0.000417  -0.000265  0
  -0.000347  0.000077  0
  0.000042  -0.000097  0
  0.000049  -0.000046  0
  0.000004  0.000022  0
  -0.000012  0.000049  0
  -0.000020  0.000028  0
  0.149321  -1.017715  0
  -0.001565  0.005920  0
  -0.001676  0.003405  0
  -0.000846  0.001453  0
  -0.000266  0.000420  0
  -0.000048  0.000074  0
  -0.000002  0.000002  0
VECTORS disp_sens_pert_x_144 double
  -0.026181  0.450578  0
  -0.008568  0.044962  0
  -0.001315  0.053308  0
  -0.000692  0.007573  0
  -0.004226  -0.007727  0
  0.000007  0.020268  0
  -0.000306  0.005614  0
  -0.000156  -0.003275  0
  -0.000180  0.001185  0
  0.000613  -0.021753  0
  0.000076  0.013819  0
  -0.000108  0.003795  0
  -0.000020  -0.004523  0
  -0.000088  -0.000398  0
  -0.000100  0.002234  0
  0.000051  0.010697  0
  0.005890  0.014557  0
  -0.000029  0.002877  0
  0.000036  -0.003549  0
  -0.000071  0.001503  0
  -0.000044  0.002358  0
  -0.000051  0.000080  0
  -0.000054  0.001579  0
  0.000026  0.008486  0
  0.012499  0.120960  0
  -0.000041  0.002015  0
  -0.000001  0.002339  0
  0.000111  0.000648  0
  -0.000015  0.002162  0
  -0.000061  0.000854  0
  -0.000040  0.001856  0
  -0.000021  0.001970  0
  -0.000078  0.001194  0
  0.021305  0.323713  0
  0.000011  0.006686  0
  0.000843  -0.013106  0
  0.000006  0.001956  0
  0.000312  -0.019681  0
  -0.000003  0.001886  0
  -0.000057  0.001515  0
  -0.000025  0.001807  0
  0.000181  -0.018374  0
  -0.000009  0.001772  0
  0.000003  0.005173  0
  0.000006  0.001647  0
  -0.000033  0.001618  0
  0.000096  -0.016166  0
  -0.000014  0.001654  0
  0.000001  0.001614  0
  -0.000003  0.001543  0
  0.000046  -0.013761  0
  -0.000017  0.001547  0
  0.000000  0.003905  0
  -0.000006  0.001461  0
  0.000004  0.001385  0
  0.000001  0.001365  0
  0.000019  -0.011433  0
  -0.000000  0.001318  0
  -0.000008  0.001389  0
  -0.000001  0.001258  0
  -0.000001  0.002858  0
  0.000002  0.001155  0
  0.000006  -0.009306  0
  0.000000  0.001141  0
  -0.000002  0.001199  0
  0.000001  0.001106  0
  0.000002  0.001059  0
  -0.000002  0.002011  0
  0.000000  -0.007426  0
  0.000001  0.000950  0
  -0.000002  0.000940  0
  0.000002  0.001007  0
  0.000000  0.000912  0
  0.000005  0.000873  0
  -0.000003  -0.005801  0
  -0.000001  0.001343  0
  -0.000000  0.000768  0
  0.000006  0.000824  0
  -0.000005  0.000760  0
  -0.000001  0.000737  0
  -0.000006  -0.004422  0
  0.000009  0.000702  0
  0.000000  0.000834  0
  -0.000001  0.000606  0
  0.000011  0.000658  0
  -0.000009  0.000601  0
  -0.000005  0.000580  0
  -0.000008  -0.003274  0
  0.000012  0.000548  0
  0.000002  0.000464  0
  0.000018  0.000509  0
  -0.000001  0.000462  0
  -0.000014  0.000461  0
  -0.000012  0.000442  0
  -0.000009  -0.002335  0
  0.000015  0.000412  0
  0.000026  0.000378  0
  0.000004  0.000213  0
  0.000000  0.000336  0
  -0.000018  0.000339  0
  -0.000022  0.000322  0
  -0.000008  -0.001587  0
  0.000016  0.000293  0
  0.000031  0.000267  0
  0.000002  0.000062  0
  0.000006  0.000227  0
  -0.000017  0.000236  0
  -0.000004  -0.001007  0
  -0.000035  0.000222  0
  0.000016  0.000193  0
  0.000031  0.000173  0
  -0.000007  -0.000008  0
  0.000017  0.000131  0
  -0.000008  0.000149  0
  0.000001  -0.000577  0
  -0.000046  0.000143  0
  0.000014  0.000112  0
  0.000022  0.000095  0
  -0.000028  -0.000014  0
  0.000029  0.000050  0
  0.000006  -0.000278  0
  0.000010  0.000076  0
  -0.000042  0.000087  0
  0.000010  0.000056  0
  0.000001  0.000030  0
  -0.000051  0.000020  0
  0.000005  -0.000095  0
  0.000025  -0.000010  0
  0.000023  0.000016  0
  0.000008  0.000063  0
  -0.000014  0.000028  0
  -0.000029  -0.000032  0
  0.000008  0.000002  0
  -0.000042  0.000048  0
  -0.000003  -0.000021  0
  -0.000018  0.000011  0
  0.000194  0.000222  0
  -0.000208  -0.000135  0
  0.000035  0.000040  0
  0.000003  0.000041  0
  -0.000649  -0.681946  0
  -0.000092  -0.000457  0
  -0.000311  -0.001268  0
  0.001042  -0.324146  0
  0.000494  0.000836  0
  0.000037  0.000124  0
  -0.000000  0.000004  0
VECTORS disp_sens_pert_x_147 double
  0.037270  0.450578  0
  -0.000733  0.044962  0
  0.006837  0.053308  0
  0.000610  0.007573  0
  -0.005756  -0.007727  0
  0.003414  0.020268  0
  0.000526  0.005614  0
  -0.000655  -0.003276  0
  -0.000040  0.001185  0
  -0.003382  -0.021753  0
  0.002630  0.013819  0
  0.000440  0.003795  0
  -0.000859  -0.004523  0
  -0.000250  -0.000398  0
  0.000194  0.002234  0
  0.002193  0.010697  0
  0.007787  0.014557  0
  0.000399  0.002877  0
  -0.000739  -0.003549  0
  0.000082  0.001503  0
  0.000284  0.002358  0
  -0.000205  0.000081  0
  0.000066  0.001579  0
  0.001858  0.008486  0
  0.031144  0.120960  0
  0.000210  0.002014  0
  0.000367  0.002339  0
  -0.000057  0.000648  0
  0.000302  0.002162  0
  -0.000219  0.000855  0
  0.000155  0.001856  0
  0.000243  0.001970  0
  -0.000081  0.001194  0
  0.067138  0.323713  0
  0.001569  0.006687  0
  -0.000975  -0.013106  0
  0.000336  0.001956  0
  -0.002690  -0.019681  0
  0.000292  0.001886  0
  0.000050  0.001515  0
  0.000189  0.001806  0
  -0.002825  -0.018374  0
  0.000245  0.001772  0
  0.001311  0.005174  0
  0.000308  0.001647  0
  0.000129  0.001618  0
  -0.002716  -0.016166  0
  0.000199  0.001653  0
  0.000273  0.001614  0
  0.000234  0.001543  0
  -0.002497  -0.013761  0
  0.000161  0.001547  0
  0.001078  0.003907  0
  0.000196  0.001459  0
  0.000282  0.001384  0
  0.000252  0.001365  0
  -0.002230  -0.011432  0
  0.000218  0.001317  0
  0.000167  0.001387  0
  0.000184  0.001255  0
  0.000867  0.002860  0
  0.000260  0.001155  0
  -0.001950  -0.009304  0
  0.000232  0.001142  0
  0.000158  0.001196  0
  0.000201  0.001107  0
  0.000168  0.001055  0
  0.000677  0.002012  0
  -0.001675  -0.007422  0
  0.000239  0.000951  0
  0.000214  0.000944  0
  0.000141  0.001000  0
  0.000183  0.000915  0
  0.000148  0.000868  0
  -0.001413  -0.005796  0
  0.000506  0.001342  0
  0.000221  0.000769  0
  0.000119  0.000812  0
  0.000198  0.000767  0
  0.000167  0.000743  0
  -0.001170  -0.004417  0
  0.000128  0.000697  0
  0.000355  0.000831  0
  0.000203  0.000607  0
  0.000092  0.000638  0
  0.000184  0.000611  0
  0.000154  0.000592  0
  -0.000947  -0.003270  0
  0.000108  0.000546  0
  0.000223  0.000458  0
  0.000063  0.000482  0
  0.000185  0.000463  0
  0.000172  0.000474  0
  0.000143  0.000463  0
  -0.000747  -0.002336  0
  0.000092  0.000419  0
  0.000031  0.000346  0
  0.000112  0.000207  0
  0.000165  0.000333  0
  0.000158  0.000352  0
  0.000136  0.000352  0
  -0.000572  -0.001598  0
  0.000082  0.000316  0
  0.000003  0.000235  0
  0.000026  0.000060  0
  0.000139  0.000215  0
  0.000140  0.000242  0
  -0.000426  -0.001036  0
  0.000130  0.000258  0
  0.000081  0.000238  0
  -0.000014  0.000156  0
  -0.000028  0.000003  0
  0.000103  0.000107  0
  0.000111  0.000139  0
  -0.000310  -0.000628  0
  0.000119  0.000174  0
  0.000088  0.000181  0
  -0.000013  0.000111  0
  -0.000040  0.000015  0
  0.000056  0.000017  0
  -0.000217  -0.000343  0
  0.000067  0.000047  0
  0.000094  0.000093  0
  0.000095  0.000135  0
  0.000003  0.000092  0
  -0.000013  0.000057  0
  -0.000125  -0.000142  0
  0.000009  -0.000037  0
  0.000017  -0.000019  0
  0.000050  0.000016  0
  0.000082  0.000082  0
  0.000009  0.000076  0
  0.000004  0.000013  0
  0.000016  0.000056  0
  -0.000011  -0.000032  0
  -0.000010  -0.000044  0
  0.000004  -0.000035  0
  0.000003  -0.000019  0
  -0.000113  -0.000076  0
  0.000149  0.000012  0
  -0.142473  -0.679829  0
  -0.000215  -0.000218  0
  -0.000470  -0.000627  0
  -0.000527  -0.000786  0
  -0.000331  -0.000430  0
  -0.000101  -0.000004  0
  -0.000039  -0.324775  0
VECTORS disp_sens_pert_y_6 double
  -0.064706  0.043883  0
  0.020801  -0.015773  0
  -0.138095  0.051967  0
  0.009697  0.000219  0
  0.006600  -0.003452  0
  0.047574  -0.037570  0
  -0.015584  0.015721  0
  0.002709  -0.003531  0
  -0.002592  0.006271  0
  0.002162  -0.002049  0
  0.040060  0.000273  0
  -0.004750  -0.002388  0
  0.001600  -0.001467  0
  -0.000310  0.002454  0
  -0.002685  0.000724  0
  0.015062  0.002293  0
  0.001184  -0.001550  0
  -0.000578  -0.001599  0
  0.000652  -0.000204  0
  -0.001167  0.001001  0
  -0.001283  -0.000339  0
  -0.000253  0.001433  0
  -0.000590  0.000721  0
  0.005517  0.002453  0
  0.001129  -0.001576  0
  -0.000905  0.000173  0
  0.000311  -0.000634  0
  -0.001334  0.003508  0
  -0.000445  -0.000321  0
  -0.000471  0.000767  0
  -0.000522  0.000180  0
  -0.000502  -0.000073  0
  -0.000336  0.000033  0
  0.020912  -0.031306  0
  0.001828  0.001594  0
  0.025895  -0.028847  0
  0.000324  -0.000184  0
  0.016011  -0.008018  0
  -0.000104  -0.000173  0
  -0.000216  -0.000198  0
  -0.000338  -0.000037  0
  0.009408  -0.000451  0
  -0.000234  -0.000099  0
  0.000498  0.000844  0
  0.000195  -0.000022  0
  -0.000104  -0.000202  0
  0.004889  0.001663  0
  -0.000181  -0.000083  0
  0.000001  -0.000072  0
  -0.000094  -0.000070  0
  0.002233  0.001657  0
  -0.000035  -0.000138  0
  0.000076  0.000389  0
  -0.000084  -0.000068  0
  0.000095  0.000020  0
  0.000020  -0.000023  0
  0.000882  0.001117  0
  -0.000032  -0.000039  0
  -0.000004  -0.000077  0
  -0.000033  -0.000043  0
  -0.000027  0.000158  0
  0.000040  0.000021  0
  0.000283  0.000627  0
  0.000016  -0.000004  0
  0.000006  -0.000038  0
  -0.000009  -0.000019  0
  -0.000011  -0.000023  0
  -0.000033  0.000055  0
  0.000057  0.000310  0
  0.000014  0.000014  0
  0.000009  0.000001  0
  0.000007  -0.000016  0
  -0.000001  -0.000008  0
  -0.000002  -0.000011  0
  -0.000010  0.000137  0
  -0.000020  0.000015  0
  0.000004  0.000007  0
  0.000005  -0.000006  0
  0.000004  0.000002  0
  0.000001  -0.000003  0
  -0.000020  0.000054  0
  0.000000  -0.000005  0
  -0.000009  0.000001  0
  0.000001  0.000003  0
  0.000003  -0.000002  0
  0.000002  0.000001  0
  0.000001  -0.000001  0
  -0.000015  0.000019  0
  0.000001  -0.000002  0
  -0.000002  -0.000003  0
  0.000001  -0.000000  0
  -0.000000  0.000001  0
  0.000000  0.000001  0
  0.000001  -0.000000  0
  -0.000008  0.000005  0
  0.000000  -0.000001  0
  0.000001  0.000000  0
  0.000002  -0.000003  0
  -0.000000  0.000000  0
  0.000000  0.000000  0
  0.000000  -0.000000  0
  -0.000004  0.000001  0
  0.000000  -0.000000  0
  0.000000  0.000000  0
  0.000003  -0.000003  0
  -0.000000  0.000000  0
  -0.000000  0.000000  0
  -0.000002  -0.000000  0
  0.000000  0.000000  0
  0.000000  -0.000000  0
  0.000000  0.000000  0
  0.000004  -0.000003  0
  -0.000000  0.000000  0
  -0.000000  0.000000  0
  -0.000001  -0.000000  0
  0.000000  0.000000  0
  0.000000  0.000000  0
  0.000000  0.000000  0
  0.000005  -0.000003  0
  -0.000000  -0.000000  0
  -0.000000  -0.000000  0
  -0.000000  0.000000  0
  0.000000  0.000000  0
  0.000000  0.000000  0
  -0.000000  0.000000  0
  0.000005  -0.000003  0
  -0.000000  -0.000000  0
  -0.000000  -0.000000  0
  -0.000000  0.000000  0
  0.000000  0.000000  0
  0.000000  0.000000  0
  -0.000000  -0.000000  0
  -0.000000  -0.000000  0
  0.000005  -0.000003  0
  -0.000000  -0.000000  0
  -0.000000  -0.000000  0
  0.000000  0.000000  0
  0.000000  0.000000  0
  -0.000000  -0.000000  0
  -0.000000  -0.000000  0
  0.000003  -0.000002  0
  -0.000000  -0.000000  0
  -0.000000  0.000000  0
  -0.000000  0.000000  0
  0.000000  0.000000  0
  -0.000000  -0.000000  0
  -0.000000  -0.000000  0
VECTORS disp_sens_pert_y_14 double
  -0.007935  0.028581  0
  -0.000253  -0.006875  0
  -0.009721  0.034970  0
  0.000873  0.001062  0
  -0.001585  -0.000866  0
  -0.005506  0.003114  0
  0.001335  -0.000516  0
  0.001330  0.001238  0
  0.006745  -0.004623  0
  -0.002658  -0.000483  0
  -0.005597  -0.004683  0
  -0.000183  0.002791  0
  -0.010431  0.004020  0
  0.073944  -0.001395  0
  -0.003796  0.001776  0
  -0.004634  -0.003438  0
  0.003633  -0.001616  0
  -0.000408  0.000575  0
  0.003968  -0.000479  0
  0.007700  -0.003052  0
  -0.001565  0.000983  0
  -0.006627  0.004542  0
  -0.001645  -0.000792  0
  -0.002655  -0.001549  0
  0.001588  -0.001139  0
  0.003178  -0.000495  0
  -0.000359  0.000066  0
  0.001060  0.003448  0
  -0.000599  0.000503  0
  -0.001363  0.001555  0
  0.000013  -0.000620  0
  0.001223  -0.000037  0
  -0.000845  -0.000553  0
  -0.007455  -0.034687  0
  -0.001167  -0.000522  0
  -0.009221  -0.027137  0
  -0.000239  -0.000020  0
  -0.006486  -0.000591  0
  -0.000252  0.000215  0
  -0.000262  -0.000581  0
  0.000278  -0.000304  0
  -0.005586  0.003722  0
  0.000458  0.000029  0
  -0.000428  -0.000160  0
  -0.000138  -0.000021  0
  -0.000032  -0.000323  0
  -0.003888  0.002568  0
  0.000211  -0.000131  0
  -0.000117  0.000083  0
  0.000166  0.000024  0
  -0.002237  0.001277  0
  0.000019  -0.000147  0
  -0.000121  -0.000048  0
  0.000117  -0.000052  0
  -0.000071  -0.000011  0
  -0.000057  0.000030  0
  -0.001109  0.000551  0
  0.000057  0.000013  0
  0.000016  -0.000061  0
  0.000055  -0.000020  0
  -0.000015  -0.000016  0
  -0.000033  -0.000005  0
  -0.000482  0.000217  0
  -0.000028  0.000011  0
  0.000007  -0.000023  0
  0.000018  0.000006  0
  0.000023  -0.000007  0
  0.000012  -0.000007  0
  -0.000181  0.000078  0
  -0.000014  -0.000002  0
  -0.000013  0.000004  0
  0.000001  -0.000008  0
  0.000004  0.000003  0
  0.000009  -0.000002  0
  -0.000056  0.000026  0
  0.000013  -0.000004  0
  -0.000005  -0.000001  0
  -0.000001  -0.000003  0
  -0.000006  0.000001  0
  0.000001  0.000001  0
  -0.000011  0.000007  0
  0.000003  -0.000001  0
  0.000008  -0.000003  0
  -0.000001  -0.000000  0
  -0.000001  -0.000001  0
  -0.000002  0.000000  0
  -0.000000  0.000000  0
  0.000002  0.000001  0
  0.000001  -0.000000  0
  0.000004  -0.000002  0
  -0.000001  -0.000000  0
  -0.000000  -0.000000  0
  -0.000001  0.000000  0
  -0.000000  0.000000  0
  0.000003  0.000000  0
  0.000000  0.000000  0
  -0.000000  -0.000000  0
  0.000002  -0.000002  0
  0.000000  -0.000000  0
  -0.000000  0.000000  0
  -0.000000  0.000000  0
  0.000002  -0.000000  0
  -0.000000  0.000000  0
  -0.000000  -0.000000  0
  0.000001  -0.000002  0
  0.000000  -0.000000  0
  -0.000000  0.000000  0
  0.000001  -0.000000  0
  -0.000000  0.000000  0
  -0.000000  0.000000  0
  -0.000000  0.000000  0
  0.000000  -0.000002  0
  0.000000  -0.000000  0
  -0.000000  -0.000000  0
  0.000000  -0.000000  0
  -0.000000  0.000000  0
  -0.000000  0.000000  0
  -0.000000  0.000000  0
  0.000000  -0.000002  0
  0.000000  -0.000000  0
  0.000000  -0.000000  0
  0.000000  -0.000000  0
  -0.000000  0.000000  0
  -0.000000  0.000000  0
  -0.000000  -0.000000  0
  0.000000  -0.000002  0
  0.000000  -0.000000  0
  0.000000  -0.000000  0
  0.000000  -0.000000  0
  -0.000000  0.000000  0
  -0.000000  0.000000  0
  0.000000  -0.000000  0
  0.000000  -0.000000  0
  0.000000  -0.000002  0
  0.000000  -0.000000  0
  0.000000  -0.000000  0
  -0.000000  0.000000  0
  -0.000000  0.000000  0
  0.000000  -0.000000  0
  0.000000  -0.000000  0
  0.000000  -0.000001  0
  0.000000  -0.000000  0
  0.000000  -0.000000  0
  -0.000000  0.000000  0
  -0.000000  0.000000  0
  0.000000  -0.000000  0
  0.000000  0.000000  0
VECTORS disp_sens_pert_y_38 double
  0.016687  0.026523  0
  -0.005515  -0.006962  0
  0.029458  0.036141  0
  0.000567  0.000114  0
  -0.002583  -0.001307  0
  0.018975  0.011036  0
  0.000672  0.001091  0
  0.000462  -0.001167  0
  0.000357  -0.000821  0
  -0.001998  0.000055  0
  0.010972  0.001033  0
  0.000517  0.001456  0
  0.001147  -0.000810  0
  0.000922  -0.002173  0
  0.000053  0.001158  0
  0.005416  -0.002065  0
  -0.002362  0.000509  0
  0.000594  0.000890  0
  0.002624  0.000563  0
  -0.000134  0.001546  0
  0.000382  0.000876  0
  0.003585  -0.004004  0
  -0.000477  0.002386  0
  0.002184  -0.002325  0
  -0.003876  0.000230  0
  0.000144  0.000772  0
  0.000479  0.000409  0
  0.009382  0.009333  0
  0.000336  0.000439  0
  0.015484  -0.006737  0
  -0.001150  0.000076  0
  -0.000004  0.000260  0
  -0.009202  -0.002359  0
  -0.083323  -0.053294  0
  0.000626  -0.001664  0
  -0.139681  -0.047932  0
  0.000300  0.000122  0
  0.080614  0.037814  0
  0.000204  0.000169  0
  -0.003164  0.000808  0
  -0.000598  0.000182  0
  0.034008  0.008657  0
  -0.000010  0.000133  0
  0.000034  -0.000952  0
  0.000155  -0.000001  0
  -0.001103  0.000720  0
  0.012412  -0.003815  0
  -0.000255  0.000185  0
  0.000111  0.000053  0
  0.000005  0.000078  0
  0.004498  -0.003566  0
  -0.000359  0.000400  0
  -0.000114  -0.000462  0
  -0.000094  0.000127  0
  0.000068  -0.000033  0
  0.000056  0.000010  0
  0.001457  -0.002147  0
  0.000011  0.000043  0
  -0.000102  0.000191  0
  -0.000028  0.000072  0
  -0.000107  -0.000194  0
  0.000025  -0.000029  0
  0.000370  -0.001104  0
  0.000026  -0.000003  0
  -0.000021  0.000083  0
  0.000010  0.000021  0
  -0.000005  0.000036  0
  -0.000068  -0.000070  0
  0.000034  -0.000511  0
  0.000007  -0.000018  0
  0.000011  -0.000005  0
  0.000000  0.000033  0
  0.000007  0.000009  0
  0.000002  0.000017  0
  -0.000040  -0.000215  0
  -0.000037  -0.000021  0
  0.000000  -0.000009  0
  0.000003  0.000012  0
  0.000004  -0.000004  0
  0.000004  0.000003  0
  -0.000038  -0.000081  0
  0.000002  0.000007  0
  -0.000018  -0.000005  0
  -0.000001  -0.000004  0
  0.000002  0.000004  0
  0.000001  -0.000002  0
  0.000002  0.000001  0
  -0.000023  -0.000027  0
  0.000002  0.000003  0
  -0.000009  -0.000001  0
  0.000001  0.000001  0
  -0.000001  -0.000002  0
  0.000000  -0.000001  0
  0.000001  0.000000  0
  -0.000012  -0.000007  0
  0.000001  0.000001  0
  0.000001  0.000000  0
  -0.000006  -0.000001  0
  -0.000001  -0.000001  0
  -0.000000  -0.000001  0
  0.000000  -0.000000  0
  -0.000005  -0.000001  0
  0.000000  0.000000  0
  0.000000  -0.000000  0
  -0.000005  -0.000002  0
  -0.000000  -0.000000  0
  -0.000000  -0.000000  0
  -0.000002  0.000000  0
  0.000000  -0.000000  0
  0.000000  0.000000  0
  0.000000  -0.000000  0
  -0.000005  -0.000003  0
  -0.000000  -0.000000  0
  -0.000000  -0.000000  0
  -0.000001  0.000000  0
  0.000000  -0.000000  0
  0.000000  -0.000000  0
  0.000000  -0.000000  0
  -0.000005  -0.000003  0
  -0.000000  0.000000  0
  -0.000000  0.000000  0
  -0.000000  -0.000000  0
  0.000000  -0.000000  0
  0.000000  -0.000000  0
  -0.000000  -0.000000  0
  -0.000005  -0.000003  0
  -0.000000  0.000000  0
  -0.000000  0.000000  0
  -0.000000  -0.000000  0
  0.000000  -0.000000  0
  0.000000  -0.000000  0
  -0.000000  0.000000  0
  -0.000000  0.000000  0
  -0.000005  -0.000003  0
  -0.000000  0.000000  0
  -0.000000  0.000000  0
  0.000000  -0.000000  0
  0.000000  -0.000000  0
  -0.000000  0.000000  0
  -0.000000  0.000000  0
  -0.000003  -0.000002  0
  -0.000000  0.000000  0
  -0.000000  -0.000000  0
  -0.000000  -0.000000  0
  -0.000000  -0.000000  0
  -0.000000  0.000000  0
  0.000000  0.000000  0
VECTORS disp_sens_pert_y_68 double
  -0.051530  0.130630  0
  0.011216  -0.034849  0
  -0.092983  0.227130  0
  -0.001493  0.002255  0
  0.005780  -0.015252  0
  -0.077127  0.163367  0
  -0.001467  0.004162  0
  0.000599  -0.002291  0
  -0.000349  0.000868  0
  0.003751  -0.009176  0
  -0.067543  0.123320  0
  -0.000961  0.003274  0
  0.000901  -0.001945  0
  0.000006  0.000498  0
  -0.000554  0.001888  0
  -0.059803  0.093045  0
  0.002809  -0.007050  0
  -0.000657  0.002470  0
  0.000901  -0.000823  0
  -0.000380  0.001662  0
  -0.000518  0.001969  0
  -0.000140  0.002204  0
  -0.000336  0.001970  0
  -0.052931  0.068693  0
  0.002351  -0.006893  0
  -0.000443  0.001761  0
  -0.000448  0.001851  0
  0.000039  0.008248  0
  -0.000400  0.001702  0
  0.000051  0.002138  0
  -0.000407  0.001699  0
  -0.000407  0.001554  0
  -0.000172  0.001563  0
  0.026809  -0.159428  0
  -0.046944  0.049022  0
  0.040711  -0.208986  0
  -0.000207  0.001337  0
  0.036512  -0.150132  0
  -0.000242  0.001374  0
  -0.000340  0.001511  0
  -0.000437  0.001441  0
  0.033392  -0.116848  0
  -0.000341  0.001276  0
  -0.042204  0.033233  0
  0.000191  0.000921  0
  -0.000451  0.001360  0
  0.029932  -0.089368  0
  -0.000448  0.001143  0
  -0.000043  0.001089  0
  -0.000279  0.000971  0
  0.026251  -0.065611  0
  -0.000531  0.001075  0
  -0.039340  0.020176  0
  -0.000450  0.000788  0
  0.000903  0.000702  0
  0.000139  0.000778  0
  0.022389  -0.045437  0
  -0.000271  0.000548  0
  -0.000569  0.000698  0
  -0.000397  0.000414  0
  -0.039696  0.006786  0
  0.001532  -0.000113  0
  0.018308  -0.028968  0
  0.000120  -0.000089  0
  -0.000525  0.000304  0
  -0.000088  0.000164  0
  -0.000232  0.000147  0
  0.277220  -0.017487  0
  0.014027  -0.016326  0
  -0.003669  0.005130  0
  -0.001085  0.002587  0
  -0.000380  -0.000010  0
  -0.000465  0.001199  0
  -0.000289  0.000455  0
  0.009760  -0.007514  0
  0.011557  -0.000855  0
  -0.001031  -0.000942  0
  -0.000264  -0.000050  0
  -0.000840  0.000277  0
  -0.000497  0.000419  0
  0.005952  -0.002324  0
  -0.000285  0.000213  0
  0.003998  0.000280  0
  0.000008  -0.000519  0
  -0.000158  -0.000107  0
  -0.000328  -0.000097  0
  -0.000301  0.000082  0
  0.003140  -0.000132  0
  -0.000193  0.000047  0
  0.001303  0.000450  0
  -0.000073  -0.000100  0
  0.000147  -0.000177  0
  -0.000085  -0.000086  0
  -0.000142  -0.000009  0
  0.001436  0.000416  0
  -0.000103  -0.000011  0
  -0.000024  -0.000064  0
  0.000379  0.000258  0
  0.000097  -0.000041  0
  -0.000006  -0.000040  0
  -0.000056  -0.000020  0
  0.000568  0.000369  0
  -0.000046  -0.000020  0
  -0.000003  -0.000032  0
  0.000097  0.000095  0
  0.000045  -0.000001  0
  0.000009  -0.000013  0
  0.000191  0.000214  0
  -0.000019  -0.000013  0
  -0.000018  -0.000014  0
  0.000002  -0.000013  0
  0.000027  0.000010  0
  0.000016  0.000005  0
  0.000007  -0.000003  0
  0.000052  0.000098  0
  -0.000005  -0.000007  0
  -0.000006  -0.000007  0
  0.000002  -0.000004  0
  0.000017  -0.000025  0
  0.000005  0.000004  0
  0.000010  0.000037  0
  0.000003  0.000000  0
  -0.000001  -0.000003  0
  -0.000001  -0.000003  0
  0.000001  -0.000001  0
  0.000018  -0.000037  0
  0.000000  0.000011  0
  0.000001  0.000002  0
  0.000001  0.000001  0
  -0.000000  -0.000001  0
  -0.000000  -0.000001  0
  0.000000  0.000000  0
  -0.000000  0.000002  0
  0.000020  -0.000042  0
  0.000000  0.000000  0
  0.000000  0.000000  0
  0.000000  -0.000000  0
  0.000000  -0.000000  0
  0.000000  0.000000  0
  -0.000000  0.000000  0
  0.000010  -0.000022  0
  0.000000  0.000000  0
  0.000000  0.000000  0
  0.000000  -0.000000  0
  0.000000  -0.000000  0
  -0.000000  0.000000  0
  -0.000000  0.000000  0
VECTORS disp_sens_pert_y_73 double
  -0.014790  0.130630  0
  0.001816  -0.034843  0
  -0.024354  0.227050  0
  -0.000638  0.002279  0
  0.000692  -0.015244  0
  -0.018915  0.163113  0
  -0.000436  0.004205  0
  -0.000131  -0.002258  0
  -0.000228  0.000921  0
  0.000405  -0.009186  0
  -0.016356  0.122805  0
  -0.000184  0.003353  0
  -0.000056  -0.001934  0
  -0.000104  0.000524  0
  -0.000181  0.001974  0
  -0.014405  0.092100  0
  0.000316  -0.007068  0
  -0.000062  0.002611  0
  -0.000031  -0.000837  0
  -0.000114  0.001706  0
  -0.000154  0.002104  0
  0.000038  0.002194  0
  -0.000007  0.001961  0
  -0.012447  0.067092  0
  0.000283  -0.006907  0
  -0.000160  0.001827  0
  -0.000020  0.002092  0
  0.000533  0.008203  0
  -0.000171  0.001898  0
  -0.000089  0.002095  0
  0.000009  0.001691  0
  -0.000266  0.001645  0
  -0.000061  0.001520  0
  -0.017284  -0.159379  0
  -0.010330  0.046532  0
  -0.024008  -0.209006  0
  0.000001  0.001714  0
  -0.018308  -0.150301  0
  -0.000205  0.001640  0
  0.000032  0.001483  0
  0.000054  0.001425  0
  -0.016209  -0.117233  0
  -0.000492  0.001402  0
  -0.008080  0.029782  0
  0.000051  0.001433  0
  0.000123  0.001381  0
  -0.014472  -0.090067  0
  0.000125  0.001102  0
  -0.000188  0.001429  0
  -0.000940  0.001202  0
  -0.012568  -0.066665  0
  0.000197  0.001186  0
  -0.005858  0.016395  0
  0.000269  0.000710  0
  0.000181  0.001191  0
  0.000034  0.001288  0
  -0.010365  -0.046681  0
  -0.001805  0.001189  0
  0.000250  0.000921  0
  0.000626  0.000307  0
  -0.003990  0.006206  0
  0.000395  0.000818  0
  -0.007870  -0.029845  0
  0.000805  0.001086  0
  0.000288  0.000597  0
  -0.003360  0.001853  0
  0.001565  0.000336  0
  -0.002834  -0.000241  0
  -0.005503  -0.016076  0
  0.000435  -0.000208  0
  0.002407  -0.001322  0
  -0.000047  -0.000314  0
  0.275096  -0.001770  0
  -0.002264  0.001295  0
  -0.003923  -0.005706  0
  -0.002254  -0.001720  0
  -0.000093  0.000802  0
  -0.000413  0.000083  0
  -0.001203  0.000756  0
  0.002669  -0.000903  0
  -0.003179  0.000218  0
  -0.000373  -0.000244  0
  -0.001510  -0.001036  0
  -0.000135  0.000141  0
  -0.000183  -0.000277  0
  -0.000487  0.000312  0
  0.000983  -0.000103  0
  -0.002296  0.001116  0
  0.000081  -0.000167  0
  -0.000733  -0.000426  0
  -0.000032  -0.000181  0
  -0.000117  -0.000006  0
  -0.000182  0.000136  0
  0.000341  0.000008  0
  -0.001345  0.000647  0
  0.000106  -0.000072  0
  0.000006  -0.000079  0
  -0.000274  -0.000149  0
  -0.000070  -0.000016  0
  -0.000075  0.000050  0
  0.000114  0.000014  0
  -0.000654  0.000272  0
  0.000062  -0.000027  0
  0.000006  -0.000028  0
  -0.000083  -0.000063  0
  -0.000034  -0.000009  0
  -0.000032  0.000016  0
  -0.000271  0.000097  0
  0.000036  0.000007  0
  0.000028  -0.000009  0
  0.000001  -0.000009  0
  -0.000019  -0.000042  0
  -0.000014  -0.000004  0
  -0.000014  0.000005  0
  -0.000095  0.000030  0
  0.000010  0.000003  0
  0.000011  -0.000003  0
  -0.000001  -0.000002  0
  -0.000003  -0.000038  0
  -0.000005  -0.000001  0
  -0.000028  0.000008  0
  -0.000006  0.000001  0
  0.000003  0.000001  0
  0.000003  -0.000001  0
  -0.000001  -0.000000  0
  -0.000000  -0.000040  0
  -0.000006  0.000002  0
  -0.000001  -0.000000  0
  -0.000002  0.000000  0
  0.000000  0.000000  0
  0.000001  -0.000000  0
  -0.000000  -0.000000  0
  -0.000001  0.000000  0
  -0.000000  -0.000042  0
  -0.000000  -0.000000  0
  -0.000001  0.000000  0
  0.000000  0.000000  0
  0.000000  -0.000000  0
  -0.000000  -0.000000  0
  -0.000000  0.000000  0
  -0.000000  -0.000021  0
  -0.000000  -0.000000  0
  -0.000000  0.000000  0
  -0.000000  0.000000  0
  0.000000  -0.000000  0
  -0.000000  0.000000  0
  0.000000  0.000000  0
VECTORS disp_sens_pert_y_81 double
  0.022137  0.130625  0
  -0.007673  -0.034839  0
  0.044646  0.226993  0
  0.000193  0.002286  0
  -0.004424  -0.015235  0
  0.039545  0.162964  0
  0.000590  0.004216  0
  -0.000854  -0.002239  0
  -0.000050  0.000947  0
  -0.002963  -0.009187  0
  0.034815  0.122542  0
  0.000609  0.003367  0
  -0.001034  -0.001915  0
  -0.000202  0.000557  0
  0.000334  0.002007  0
  0.030360  0.091685  0
  -0.002192  -0.007080  0
  0.000599  0.002626  0
  -0.001041  -0.000835  0
  0.000250  0.001761  0
  0.000496  0.002135  0
  0.000099  0.002213  0
  0.000162  0.002008  0
  0.026127  0.066517  0
  -0.001764  -0.006922  0
  0.000398  0.001907  0
  0.000577  0.002097  0
  0.000926  0.008168  0
  0.000561  0.001906  0
  -0.000383  0.002060  0
  0.000221  0.001792  0
  0.000489  0.001743  0
  -0.000230  0.001484  0
  -0.061005  -0.159366  0
  0.022041  0.045875  0
  -0.088175  -0.209062  0
  0.000553  0.001686  0
  -0.072591  -0.150481  0
  0.000602  0.001579  0
  -0.000064  0.001467  0
  0.000310  0.001621  0
  -0.065400  -0.117615  0
  0.000590  0.001481  0
  0.017989  0.029293  0
  0.000532  0.001332  0
  -0.000001  0.001431  0
  -0.058990  -0.090788  0
  0.000447  0.001441  0
  0.000631  0.001219  0
  0.000710  0.001151  0
  -0.052849  -0.067920  0
  0.000035  0.001389  0
  0.013902  0.016548  0
  0.000677  0.001211  0
  0.000501  0.000997  0
  0.000622  0.000827  0
  -0.047351  -0.048701  0
  0.000809  0.000721  0
  0.000201  0.001391  0
  0.001018  0.000831  0
  0.009858  0.007557  0
  0.000434  0.000675  0
  -0.043108  -0.032815  0
  0.000518  0.000420  0
  0.000790  0.001371  0
  0.000769  0.000147  0
  0.001337  0.000064  0
  0.006158  0.002184  0
  -0.040976  -0.019690  0
  0.000318  0.000435  0
  0.000284  0.000155  0
  0.002283  0.000826  0
  0.000406  -0.000422  0
  0.001056  -0.001391  0
  -0.042839  -0.010344  0
  0.003253  -0.000141  0
  0.000222  0.000432  0
  0.005175  -0.002175  0
  0.000099  0.000564  0
  -0.000024  0.000667  0
  0.283763  0.012757  0
  -0.000193  0.000705  0
  0.001419  -0.000714  0
  0.000200  0.000224  0
  -0.003035  -0.001236  0
  0.000156  0.000325  0
  0.000056  0.000289  0
  0.010339  0.003391  0
  -0.000370  -0.000011  0
  0.000489  -0.000614  0
  -0.000838  0.000203  0
  0.000134  0.000082  0
  0.000114  0.000137  0
  0.000007  0.000091  0
  0.003331  -0.000874  0
  -0.000165  0.000049  0
  -0.000239  0.000173  0
  0.000110  -0.000371  0
  0.000070  0.000012  0
  0.000061  0.000042  0
  0.000002  0.000039  0
  0.001053  -0.000810  0
  -0.000060  0.000047  0
  -0.000060  0.000079  0
  -0.000006  -0.000188  0
  0.000029  -0.000009  0
  0.000028  0.000009  0
  0.000292  -0.000425  0
  0.000003  0.000019  0
  -0.000019  0.000027  0
  -0.000011  0.000029  0
  -0.000026  -0.000091  0
  0.000009  -0.000009  0
  0.000012  -0.000001  0
  0.000063  -0.000180  0
  0.000003  0.000008  0
  -0.000005  0.000013  0
  -0.000001  0.000008  0
  -0.000024  -0.000053  0
  0.000002  -0.000005  0
  0.000007  -0.000064  0
  0.000004  -0.000002  0
  0.000002  0.000003  0
  -0.000001  0.000005  0
  0.000000  0.000001  0
  -0.000021  -0.000043  0
  -0.000002  -0.000018  0
  0.000000  -0.000002  0
  0.000001  -0.000001  0
  0.000001  0.000001  0
  0.000000  0.000002  0
  0.000000  -0.000000  0
  -0.000001  -0.000004  0
  -0.000020  -0.000043  0
  -0.000000  -0.000001  0
  0.000000  -0.000001  0
  0.000000  0.000000  0
  0.000000  0.000001  0
  -0.000000  -0.000000  0
  -0.000000  -0.000001  0
  -0.000010  -0.000022  0
  0.000000  -0.000000  0
  0.000000  -0.000000  0
  0.000000  0.000000  0
  0.000000  0.000000  0
  -0.000000  -0.000000  0
  -0.000000  -0.000000  0
VECTORS disp_sens_pert_y_141 double
  -0.051589  0.253419  0
  0.011244  -0.066328  0
  -0.093126  0.456484  0
  -0.001484  0.005087  0
  0.005795  -0.032259  0
  -0.077285  0.357676  0
  -0.001464  0.007633  0
  0.000612  -0.004698  0
  -0.000344  0.001395  0
  0.003756  -0.020374  0
  -0.067682  0.293568  0
  -0.000970  0.005979  0
  0.000918  -0.005172  0
  0.000026  0.000149  0
  -0.000565  0.003421  0
  -0.059829  0.242583  0
  0.002805  -0.015393  0
  -0.000698  0.004744  0
  0.000919  -0.004072  0
  -0.000364  0.002707  0
  -0.000562  0.003753  0
  -0.000108  0.002586  0
  -0.000289  0.002772  0
  -0.052619  0.199028  0
  0.002338  -0.013756  0
  -0.000437  0.003141  0
  -0.000568  0.003922  0
  0.000048  0.009706  0
  -0.000509  0.003463  0
  0.000074  0.001398  0
  -0.000338  0.002684  0
  -0.000425  0.002985  0
  -0.000119  0.001454  0
  0.026714  -0.305740  0
  -0.045844  0.161363  0
  0.040533  -0.423778  0
  -0.000502  0.003309  0
  0.036282  -0.332029  0
  -0.000459  0.003036  0
  -0.000236  0.001975  0
  -0.000345  0.002549  0
  0.033115  -0.281674  0
  -0.000396  0.002683  0
  -0.039494  0.128931  0
  -0.000461  0.002810  0
  -0.000275  0.002137  0
  0.029671  -0.237886  0
  -0.000331  0.002335  0
  -0.000418  0.002616  0
  -0.000366  0.002350  0
  0.026170  -0.197829  0
  -0.000273  0.002036  0
  -0.033588  0.101243  0
  -0.000309  0.002069  0
  -0.000430  0.002386  0
  -0.000385  0.002230  0
  0.022795  -0.161726  0
  -0.000336  0.002020  0
  -0.000255  0.001810  0
  -0.000284  0.001785  0
  -0.028140  0.077866  0
  -0.000401  0.002013  0
  0.019627  -0.129869  0
  -0.000354  0.001880  0
  -0.000231  0.001545  0
  -0.000308  0.001707  0
  -0.000259  0.001505  0
  -0.023161  0.058410  0
  0.016694  -0.102294  0
  -0.000373  0.001679  0
  -0.000324  0.001563  0
  -0.000206  0.001280  0
  -0.000279  0.001416  0
  -0.000234  0.001241  0
  0.014001  -0.078840  0
  -0.018661  0.042512  0
  -0.000343  0.001377  0
  -0.000183  0.001035  0
  -0.000292  0.001275  0
  -0.000250  0.001150  0
  0.011547  -0.059236  0
  -0.000210  0.000999  0
  -0.014650  0.029819  0
  -0.000312  0.001103  0
  -0.000162  0.000814  0
  -0.000258  0.001014  0
  -0.000218  0.000908  0
  0.009325  -0.043156  0
  -0.000185  0.000781  0
  -0.011140  0.019984  0
  -0.000144  0.000621  0
  -0.000277  0.000856  0
  -0.000219  0.000779  0
  -0.000182  0.000692  0
  0.007324  -0.030249  0
  -0.000158  0.000587  0
  -0.000127  0.000452  0
  -0.008138  0.012648  0
  -0.000241  0.000639  0
  -0.000176  0.000570  0
  -0.000143  0.000501  0
  0.005533  -0.020160  0
  -0.000129  0.000419  0
  -0.000109  0.000306  0
  -0.005634  0.007433  0
  -0.000210  0.000458  0
  -0.000131  0.000392  0
  0.003946  -0.012543  0
  -0.000101  0.000341  0
  -0.000098  0.000279  0
  -0.000087  0.000182  0
  -0.003591  0.003931  0
  -0.000195  0.000324  0
  -0.000088  0.000245  0
  0.002574  -0.007074  0
  -0.000060  0.000214  0
  -0.000069  0.000169  0
  -0.000059  0.000081  0
  -0.001943  0.001723  0
  -0.000206  0.000240  0
  0.001457  -0.003449  0
  -0.000047  0.000127  0
  -0.000028  0.000121  0
  -0.000047  0.000089  0
  -0.000030  0.000009  0
  -0.000644  0.000434  0
  0.000657  -0.001347  0
  -0.000213  0.000154  0
  0.000004  0.000015  0
  -0.000009  0.000044  0
  -0.000029  0.000032  0
  -0.000005  -0.000030  0
  0.000208  -0.000376  0
  0.000164  -0.000200  0
  -0.000037  -0.000259  0
  0.000142  -0.000162  0
  0.000042  -0.000036  0
  -0.000010  -0.000005  0
  0.000011  -0.000048  0
  0.000039  -0.000066  0
  0.325090  -0.004856  0
  -0.000371  0.000531  0
  -0.000305  0.000372  0
  -0.000124  0.000130  0
  -0.000008  -0.000009  0
  0.000024  -0.000032  0
  0.000002  -0.000002  0
VECTORS disp_sens_pert_y_144 double
  -0.014751  0.253419  0
  0.001799  -0.066328  0
  -0.024296  0.456484  0
  -0.000640  0.005087  0
  0.000690  -0.032259  0
  -0.018920  0.357676  0
  -0.000433  0.007633  0
  -0.000120  -0.004698  0
  -0.000200  0.001395  0
  0.000399  -0.020374  0
  -0.016466  0.293570  0
  -0.000177  0.005979  0
  -0.000055  -0.005172  0
  -0.000089  0.000149  0
  -0.000127  0.003420  0
  -0.014715  0.242586  0
  0.000307  -0.015393  0
  -0.000048  0.004744  0
  -0.000053  -0.004072  0
  -0.000067  0.002707  0
  -0.000059  0.003753  0
  0.000006  0.002586  0
  -0.000052  0.002772  0
  -0.013106  0.199034  0
  0.000284  -0.013756  0
  -0.000048  0.003140  0
  0.000000  0.003922  0
  0.000499  0.009706  0
  -0.000022  0.003462  0
  -0.000134  0.001398  0
  -0.000055  0.002684  0
  -0.000030  0.002984  0
  -0.000136  0.001454  0
  -0.017192  -0.305740  0
  -0.011530  0.161372  0
  -0.023895  -0.423778  0
  0.000012  0.003308  0
  -0.018231  -0.332029  0
  -0.000005  0.003036  0
  -0.000086  0.001975  0
  -0.000038  0.002548  0
  -0.016207  -0.281672  0
  -0.000016  0.002682  0
  -0.009997  0.128944  0
  0.000011  0.002810  0
  -0.000046  0.002138  0
  -0.014652  -0.237882  0
  -0.000022  0.002334  0
  0.000001  0.002615  0
  -0.000007  0.002348  0
  -0.013122  -0.197823  0
  -0.000022  0.002036  0
  -0.008538  0.101258  0
  -0.000010  0.002067  0
  0.000007  0.002385  0
  0.000002  0.002230  0
  -0.011577  -0.161714  0
  -0.000002  0.002018  0
  -0.000009  0.001810  0
  -0.000003  0.001781  0
  -0.007174  0.077880  0
  0.000004  0.002013  0
  -0.010057  -0.129850  0
  0.000001  0.001883  0
  -0.000003  0.001542  0
  -0.000000  0.001706  0
  0.000002  0.001499  0
  -0.005917  0.058414  0
  -0.008603  -0.102267  0
  0.000002  0.001681  0
  -0.000002  0.001570  0
  0.000002  0.001274  0
  -0.000001  0.001417  0
  0.000005  0.001233  0
  -0.007242  -0.078807  0
  -0.004769  0.042488  0
  0.000001  0.001384  0
  0.000006  0.001022  0
  -0.000006  0.001289  0
  -0.000004  0.001155  0
  -0.005987  -0.059205  0
  0.000008  0.000990  0
  -0.003729  0.029742  0
  -0.000001  0.001117  0
  0.000012  0.000795  0
  -0.000012  0.001039  0
  -0.000011  0.000921  0
  -0.004842  -0.043142  0
  0.000011  0.000771  0
  -0.002795  0.019821  0
  0.000019  0.000595  0
  -0.000001  0.000878  0
  -0.000020  0.000817  0
  -0.000024  0.000714  0
  -0.003804  -0.030275  0
  0.000012  0.000579  0
  0.000027  0.000422  0
  -0.001968  0.012373  0
  0.000001  0.000667  0
  -0.000028  0.000625  0
  -0.000046  0.000536  0
  -0.002868  -0.020255  0
  0.000011  0.000411  0
  0.000034  0.000276  0
  -0.001262  0.007046  0
  0.000010  0.000481  0
  -0.000032  0.000463  0
  -0.002031  -0.012724  0
  -0.000078  0.000387  0
  0.000011  0.000268  0
  0.000038  0.000156  0
  -0.000701  0.003495  0
  0.000027  0.000318  0
  -0.000025  0.000328  0
  -0.001305  -0.007329  0
  -0.000123  0.000269  0
  0.000013  0.000149  0
  0.000041  0.000066  0
  -0.000317  0.001372  0
  0.000050  0.000176  0
  -0.000715  -0.003716  0
  0.000001  0.000222  0
  -0.000184  0.000187  0
  0.000026  0.000056  0
  0.000048  0.000013  0
  -0.000113  0.000321  0
  -0.000304  -0.001541  0
  0.000063  0.000064  0
  0.000051  0.000143  0
  -0.000271  0.000141  0
  0.000064  0.000001  0
  0.000062  0.000015  0
  -0.000094  -0.000465  0
  -0.000035  -0.000051  0
  0.000062  -0.000008  0
  0.000149  0.000092  0
  -0.000466  0.000142  0
  0.000201  0.000117  0
  -0.000029  -0.000033  0
  -0.000022  -0.000087  0
  -0.000001  -0.000070  0
  0.000004  0.000021  0
  0.000176  -0.000047  0
  0.322902  -0.002396  0
  -0.000136  -0.000048  0
  -0.000010  -0.000059  0
  0.000000  -0.000004  0
VECTORS disp_sens_pert_y_147 double
  0.022085  0.253419  0
  -0.007646  -0.066328  0
  0.044533  0.456484  0
  0.000203  0.005087  0
  -0.004415  -0.032259  0
  0.039445  0.357677  0
  0.000598  0.007633  0
  -0.000851  -0.004698  0
  -0.000057  0.001394  0
  -0.002958  -0.020374  0
  0.034752  0.293571  0
  0.000616  0.005979  0
  -0.001027  -0.005172  0
  -0.000203  0.000148  0
  0.000310  0.003420  0
  0.030405  0.242588  0
  -0.002190  -0.015393  0
  0.000601  0.004744  0
  -0.001024  -0.004071  0
  0.000230  0.002706  0
  0.000443  0.003753  0
  0.000121  0.002586  0
  0.000184  0.002772  0
  0.026420  0.199038  0
  -0.001770  -0.013756  0
  0.000339  0.003140  0
  0.000568  0.003921  0
  0.000952  0.009707  0
  0.000463  0.003462  0
  -0.000341  0.001398  0
  0.000228  0.002683  0
  0.000363  0.002984  0
  -0.000152  0.001454  0
  -0.061100  -0.305741  0
  0.022808  0.161378  0
  -0.088324  -0.423778  0
  0.000524  0.003307  0
  -0.072745  -0.332029  0
  0.000445  0.003035  0
  0.000067  0.001975  0
  0.000267  0.002548  0
  -0.065528  -0.281671  0
  0.000360  0.002681  0
  0.019539  0.128953  0
  0.000480  0.002809  0
  0.000186  0.002138  0
  -0.058969  -0.237880  0
  0.000285  0.002333  0
  0.000416  0.002615  0
  0.000346  0.002347  0
  -0.052400  -0.197817  0
  0.000232  0.002036  0
  0.016571  0.101269  0
  0.000283  0.002065  0
  0.000440  0.002384  0
  0.000385  0.002231  0
  -0.045921  -0.161705  0
  0.000324  0.002018  0
  0.000238  0.001808  0
  0.000267  0.001778  0
  0.013869  0.077889  0
  0.000405  0.002012  0
  -0.039690  -0.129836  0
  0.000355  0.001885  0
  0.000223  0.001538  0
  0.000300  0.001707  0
  0.000244  0.001495  0
  0.011412  0.058416  0
  -0.033815  -0.102248  0
  0.000374  0.001681  0
  0.000328  0.001575  0
  0.000198  0.001266  0
  0.000275  0.001422  0
  0.000218  0.001229  0
  -0.028360  -0.078786  0
  0.009185  0.042471  0
  0.000345  0.001385  0
  0.000167  0.001009  0
  0.000304  0.001298  0
  0.000252  0.001167  0
  -0.023359  -0.059188  0
  0.000190  0.000989  0
  0.007178  0.029692  0
  0.000318  0.001119  0
  0.000131  0.000775  0
  0.000282  0.001053  0
  0.000233  0.000942  0
  -0.018834  -0.043144  0
  0.000165  0.000777  0
  0.005385  0.019724  0
  0.000093  0.000568  0
  0.000291  0.000880  0
  0.000263  0.000837  0
  0.000220  0.000749  0
  -0.014801  -0.030321  0
  0.000146  0.000599  0
  0.000054  0.000390  0
  0.003806  0.012221  0
  0.000262  0.000664  0
  0.000244  0.000645  0
  0.000213  0.000586  0
  -0.011274  -0.020374  0
  0.000136  0.000456  0
  0.000020  0.000248  0
  0.002456  0.006852  0
  0.000225  0.000468  0
  0.000220  0.000475  0
  -0.008262  -0.012946  0
  0.000209  0.000448  0
  0.000139  0.000347  0
  -0.000002  0.000144  0
  0.001372  0.003297  0
  0.000174  0.000288  0
  0.000186  0.000320  0
  -0.005755  -0.007659  0
  0.000202  0.000327  0
  0.000152  0.000266  0
  -0.000009  0.000076  0
  0.000602  0.001226  0
  0.000107  0.000133  0
  -0.003708  -0.004113  0
  0.000135  0.000181  0
  0.000181  0.000214  0
  0.000167  0.000200  0
  -0.000009  0.000030  0
  0.000167  0.000257  0
  -0.002048  -0.001902  0
  0.000039  0.000026  0
  0.000073  0.000064  0
  0.000132  0.000101  0
  0.000161  0.000124  0
  -0.000027  -0.000024  0
  -0.000758  -0.000681  0
  0.000006  -0.000060  0
  -0.000004  -0.000021  0
  0.000016  -0.000028  0
  0.000065  -0.000001  0
  0.000096  0.000015  0
  -0.000121  -0.000152  0
  -0.000062  -0.000160  0
  -0.000016  -0.000067  0
  0.000012  0.000051  0
  -0.000027  0.000035  0
  -0.000063  -0.000040  0
  -0.000015  -0.000029  0
  -0.000010  0.000125  0
  0.324652  -0.000041  0
VECTORS strain_energy_sensitivity double
  -123.285995  -66.131061  0
  -8.471315  17.932679  0
  -13.522045  -113.840295  0
  -1.959560  -1.462431  0
  1.819289  7.919335  0
  -4.457350  -81.672173  0
  -1.558478  -2.288693  0
  0.777515  1.126080  0
  -0.394254  -0.497183  0
  4.501331  4.780275  0
  -2.701405  -62.473426  0
  -1.038241  -1.752222  0
  0.958470  1.076611  0
  -0.014905  -0.195378  0
  -0.631600  -0.998049  0
  -1.906415  -48.335963  0
  -4.065220  3.626784  0
  -0.750015  -1.322701  0
  0.615052  0.588693  0
  -0.445071  -0.793875  0
  -0.620823  -1.032115  0
  -0.185909  -0.942574  0
  -0.491221  -0.848191  0
  -1.390763  -37.087020  0
  -29.432628  3.440286  0
  -0.533854  -0.853152  0
  -0.572008  -1.028719  0
  -0.474114  -3.737568  0
  -0.534048  -0.903198  0
  -0.545453  -0.819047  0
  -0.505919  -0.732398  0
  -0.488078  -0.763796  0
  -0.464467  -0.551473  0
  -84.189165  78.497554  0
  -1.006242  -28.010177  0
  3.379806  103.677584  0
  -0.444996  -0.812407  0
  4.698442  75.529818  0
  -0.435539  -0.746822  0
  -0.441816  -0.537378  0
  -0.450805  -0.632915  0
  4.081538  60.056335  0
  -0.410152  -0.644244  0
  -0.710383  -20.735882  0
  -0.346350  -0.642918  0
  -0.405240  -0.495408  0
  3.357200  47.593393  0
  -0.380565  -0.532935  0
  -0.346038  -0.602735  0
  -0.331663  -0.526607  0
  2.671056  37.064861  0
  -0.349005  -0.422326  0
  -0.484861  -14.984701  0
  -0.310099  -0.434986  0
  -0.266791  -0.505432  0
  -0.269646  -0.478589  0
  2.067353  28.269270  0
  -0.261214  -0.420389  0
  -0.286065  -0.339661  0
  -0.245323  -0.344535  0
  -0.317097  -10.516852  0
  -0.201742  -0.392142  0
  1.559346  21.074514  0
  -0.205856  -0.373909  0
  -0.225650  -0.261051  0
  -0.200760  -0.328281  0
  -0.188682  -0.265009  0
  -0.196450  -7.120718  0
  1.145203  15.318672  0
  -0.148550  -0.298465  0
  -0.153298  -0.286671  0
  -0.172107  -0.192453  0
  -0.150247  -0.250496  0
  -0.140857  -0.197697  0
  0.816367  10.818342  0
  -0.113471  -4.607661  0
  -0.105451  -0.221423  0
  -0.126888  -0.135616  0
  -0.110605  -0.214847  0
  -0.108970  -0.186265  0
  0.561855  7.386077  0
  -0.101657  -0.142494  0
  -0.059740  -2.809019  0
  -0.071133  -0.158872  0
  -0.090038  -0.090365  0
  -0.076583  -0.156628  0
  -0.076042  -0.134413  0
  0.370297  4.841813  0
  -0.070449  -0.098585  0
  -0.027840  -1.574602  0
  -0.060987  -0.055730  0
  -0.044515  -0.109090  0
  -0.050144  -0.110386  0
  -0.050526  -0.093614  0
  0.230832  3.018864  0
  -0.046426  -0.064819  0
  -0.038932  -0.030455  0
  -0.011351  -0.772077  0
  -0.024628  -0.070571  0
  -0.030302  -0.074610  0
  -0.031468  -0.062481  0
  0.133475  1.766644  0
  -0.028713  -0.039923  0
  -0.022980  -0.013203  0
  -0.004828  -0.286732  0
  -0.010586  -0.041927  0
  -0.016105  -0.047838  0
  0.069240  0.951785  0
  -0.017936  -0.039624  0
  -0.016385  -0.022570  0
  -0.012237  -0.002625  0
  -0.003791  -0.021337  0
  -0.001594  -0.021892  0
  -0.006656  -0.028644  0
  0.030151  0.458539  0
  -0.008953  -0.023629  0
  -0.008482  -0.011406  0
  -0.005810  0.002644  0
  -0.004649  0.104019  0
  0.002997  -0.009318  0
  0.009235  0.188790  0
  -0.001132  -0.015618  0
  -0.003493  -0.013050  0
  -0.003970  -0.005018  0
  -0.002829  0.004074  0
  -0.004656  0.151874  0
  0.000389  0.061895  0
  0.003730  -0.003020  0
  0.001267  -0.007299  0
  -0.000470  -0.006435  0
  -0.001763  -0.001848  0
  -0.002305  0.003407  0
  -0.001643  0.014643  0
  -0.002320  0.166429  0
  0.001856  -0.000644  0
  0.002143  -0.001896  0
  0.001088  -0.002245  0
  -0.001041  -0.000191  0
  -0.002589  0.002608  0
  -0.000792  0.002253  0
  264.130229  0.085096  0
  -0.111775  -0.003143  0
  -0.078262  -0.004966  0
  -0.037595  -0.002394  0
  -0.011585  0.000543  0
  -0.002179  0.000759  0
  -0.000027  0.000026  0
VECTORS stress_sens_19 double
  357.095663  163.114602  0
  -99.198229  -79.054118  0
  54.178566  238.874287  0
  -5.728191  -13.758072  0
  -16.324014  -8.093346  0
  17.559819  -38.527452  0
  10.517331  6.207499  0
  24.908153  35.658340  0
  60.366268  84.309325  0
  -17.754538  -17.202092  0
  -18.834773  -461.352389  0
  26.072342  25.872910  0
  6.554065  22.207451  0
  39.726067  79.177451  0
  112.769176  156.503155  0
  -85.244287  -1226.137706  0
  -7.112982  -33.701017  0
  50.204862  60.527781  0
  -50.163953  -44.621383  0
  108.757718  184.892960  0
  182.763076  252.283450  0
  -55.017969  -20.742139  0
  -17.944616  49.255136  0
  -201.873406  -2506.355437  0
  27.660353  -20.299392  0
  227.660594  350.138596  0
  77.506536  108.109634  0
  -98.578082  -162.989878  0
  256.091294  352.738014  0
  -171.141995  -205.695965  0
  93.614218  224.065067  0
  399.413770  574.341284  0
  -269.551266  -296.867850  0
  -310.525117  343.327622  0
  -378.311178  -4389.551163  0
  43.036256  337.765624  0
  87.799556  144.642324  0
  25.496050  21.452131  0
  289.940568  400.725056  0
  -351.235164  -348.835319  0
  354.830724  586.492473  0
  -55.366963  -625.140194  0
  592.445125  801.139017  0
  -595.358688  -6726.690183  0
  43.337951  115.768784  0
  -284.071637  -180.453743  0
  -278.549353  -2082.049362  0
  850.944235  1206.703223  0
  198.109971  284.424916  0
  671.756597  845.644122  0
  -801.423574  -5081.308848  0
  261.548884  621.139159  0
  -779.764023  -8935.866155  0
  1569.142047  1993.887053  0
  -91.584837  -42.667963  0
  -135.172812  -137.591618  0
  -1881.778881  -10796.100972  0
  273.413548  302.176683  0
  2017.249311  2890.339205  0
  1922.892657  2231.171950  0
  -798.991863  -9960.250017  0
  -263.883190  -282.639481  0
  -3784.934901  -21258.455775  0
  -679.717575  -809.081265  0
  6153.493691  7938.123797  0
  -1165.391818  -1271.182276  0
  -986.132408  -431.685095  0
  -555.218202  -8826.255247  0
  -5348.800436  -43067.278453  0
  -211.439738  -222.317545  0
  -592.578703  -681.260561  0
  6905.312487  16185.241041  0
  -1606.481225  -1768.097509  0
  -4310.810712  -5225.953298  0
  -218334.224043  1257488.123456  0
  -236.616779  -5949.965464  0
  19.028285  86.820884  0
  -157505.395626  -79093.105808  0
  271.126623  350.465307  0
  700.861747  345.610019  0
  350208.659450  -1043432.756648  0
  1048.783980  -1291.275832  0
  -104.404052  -3138.673350  0
  -58.911692  -136.935578  0
  -1803.238471  7310.709836  0
  24.808379  -95.420993  0
  42.480655  -233.393056  0
  -597.473695  -24042.733428  0
  -67.770591  778.570333  0
  -40.852063  -1332.376524  0
  974.536736  1626.033045  0
  -64.767060  -180.946710  0
  -56.429598  -166.077427  0
  -62.626185  -12.339413  0
  -635.494385  -6977.249923  0
  85.243013  384.618023  0
  365.972371  448.476081  0
  -13.786672  -436.855917  0
  -36.428724  -125.935686  0
  -46.649536  -100.582408  0
  -32.666356  13.446011  0
  -199.786732  -2272.098094  0
  40.918761  148.163895  0
  114.849223  116.613542  0
  -4.428367  -95.959080  0
  -11.965516  -62.205397  0
  -24.236418  -50.094139  0
  -43.479969  -687.679070  0
  -17.420351  4.766862  0
  11.663436  50.273312  0
  32.403636  23.656361  0
  -2.240830  -3.108906  0
  -0.906466  -23.540889  0
  -10.026136  -22.230718  0
  -2.616640  -176.911783  0
  -8.944697  -0.432793  0
  1.575236  14.630411  0
  8.057226  1.897741  0
  -1.682591  9.732696  0
  1.606101  -6.751106  0
  3.291650  -33.725185  0
  -3.256839  -8.613529  0
  -3.970234  -1.391782  0
  -0.531571  3.360375  0
  1.907310  -1.021484  0
  -0.944590  7.284717  0
  1.826512  -2.894591  0
  0.956323  -1.425823  0
  -0.766108  -2.791959  0
  -1.376704  -0.895422  0
  -0.422101  0.449948  0
  0.611901  -0.491785  0
  0.355874  0.597760  0
  -0.161072  5.927924  0
  0.075292  -0.254597  0
  -0.030622  -0.553315  0
  -0.157354  -0.253644  0
  -0.130807  -0.092286  0
  0.113769  -0.105731  0
  -0.148264  0.219752  0
  31537.311012  2.958393  0
  -3.606411  -0.224658  0
  -4.732174  -0.926908  0
  -3.219171  -0.710318  0
  -1.214121  -0.142707  0
  -0.226144  0.151417  0
  -0.018420  0.018313  0
VECTORS stress_sens_39 double
  -0.227366  -0.079321  0
  0.047716  0.031748  0
  -0.012476  -0.029927  0
  -0.014776  -0.017797  0
  -0.012807  -0.005601  0
  0.020413  0.289725  0
  -0.033111  -0.045782  0
  -0.038434  -0.052903  0
  -0.067659  -0.097734  0
  0.019176  0.017411  0
  0.068029  0.770808  0
  -0.060896  -0.089597  0
  -0.011030  -0.026415  0
  -0.035698  -0.071313  0
  -0.112589  -0.166059  0
  0.152634  1.592904  0
  0.025237  0.036532  0
  -0.107658  -0.168299  0
  0.041395  0.035807  0
  -0.083762  -0.147815  0
  -0.171793  -0.257748  0
  0.042798  0.017800  0
  0.017293  -0.022272  0
  0.294665  2.903602  0
  -0.021691  0.026120  0
  -0.161074  -0.258595  0
  -0.175684  -0.293482  0
  0.079211  0.132723  0
  -0.232826  -0.358866  0
  0.122404  0.155150  0
  -0.050766  -0.118312  0
  -0.264312  -0.398704  0
  0.175882  0.211963  0
  0.223679  -0.221295  0
  0.508408  4.775756  0
  -0.024689  -0.142281  0
  -0.259836  -0.468228  0
  -0.009154  0.172375  0
  -0.261714  -0.427381  0
  0.209714  0.248957  0
  -0.202993  -0.310024  0
  0.042213  0.718106  0
  -0.372923  -0.529657  0
  0.789113  7.080458  0
  -0.341300  -0.677754  0
  0.157819  0.188927  0
  0.160320  1.754416  0
  -0.490207  -0.634962  0
  -0.189877  -0.375698  0
  -0.424940  -0.547669  0
  0.393634  3.547222  0
  -0.104191  -0.104695  0
  1.091478  9.276196  0
  -0.958334  -1.099737  0
  -0.381575  -0.877983  0
  0.096661  -0.056597  0
  0.797155  6.313806  0
  -0.285962  -0.240865  0
  -0.784743  -0.849594  0
  -1.606578  -1.614918  0
  1.304829  10.145994  0
  -0.323801  -0.989900  0
  1.408014  10.030723  0
  0.752422  0.729926  0
  -2.187046  -2.338622  0
  0.284339  0.752876  0
  -2.301097  -1.877088  0
  1.240768  7.597576  0
  2.185835  14.062153  0
  -0.115749  -0.919965  0
  1.929714  2.178754  0
  -4.669441  -4.862184  0
  1.645801  2.951797  0
  -2.630012  -1.192671  0
  2.893012  16.571594  0
  0.670421  -1.219430  0
  0.226456  -0.636634  0
  -8.490615  -8.480862  0
  3.666128  4.330240  0
  4.225179  6.929198  0
  2.889431  13.766273  0
  -1.712919  1.719056  0
  -0.533798  -19.079848  0
  0.499309  -0.333131  0
  -13.441052  -12.541102  0
  5.682153  6.802361  0
  8.322146  12.992102  0
  0.833445  -0.759536  0
  1.948830  8.801825  0
  -2.101870  -46.739254  0
  -18.151898  -14.839510  0
  0.162025  -0.659244  0
  7.122426  8.445498  0
  13.692207  20.510433  0
  -5.643327  -35.907210  0
  10.339343  22.278556  0
  -19.072231  -10.514876  0
  -2.961921  -79.988320  0
  -1.711681  -2.848965  0
  6.416820  7.128159  0
  18.896610  26.852935  0
  -19.998725  -100.854562  0
  25.042416  43.190129  0
  -9.529434  8.669260  0
  -1.073932  -107.288015  0
  -6.038907  -8.245551  0
  1.677907  0.130475  0
  -45.743377  -198.633250  0
  20.646335  26.214636  0
  44.991105  68.025781  0
  19.526700  52.575227  0
  5.549881  -112.021487  0
  -12.370000  -16.407205  0
  -7.722652  -14.155823  0
  -82.295882  -313.500718  0
  13.800437  9.419055  0
  62.670198  82.917643  0
  73.074426  124.139188  0
  15.141050  -84.298609  0
  -16.703762  -21.933437  0
  -113.631497  -396.325813  0
  -18.132679  -32.888155  0
  -6.762534  -32.431760  0
  59.420630  56.994159  0
  132.098275  199.884706  0
  16.749251  -38.261905  0
  -80.190677  -387.129207  0
  -12.695498  -15.670947  0
  -20.837918  -45.810795  0
  -41.190789  -93.946790  0
  -7.028508  -49.980276  0
  77.608035  223.524639  0
  215.393563  -418.424240  0
  -0.104371  -7.530034  0
  -6.204043  1.658807  0
  -29.110089  -35.614147  0
  -92.489889  -128.879052  0
  -178.288491  -159.828903  0
  -679.988437  703.348471  0
  -698183.437371  793139.086500  0
  849.178785  1.304048  0
  105.193908  16.180277  0
  253.186268  67.478415  0
  333.807705  85.646538  0
  421.567492  -190.188259  0
  793073.884057  -696096.630511  0
  741125.012966  741062.843591  0
VECTORS stress_sens_220 double
  -478.270610  -244.306261  0
  93.394993  106.300656  0
  -86.590155  -418.640970  0
  -15.232561  -12.330642  0
  75.753156  42.352549  0
  -30.920446  -100.578192  0
  -59.663547  -77.738242  0
  -0.888448  -9.355937  0
  -48.567348  -74.859452  0
  40.742290  34.714318  0
  34.176464  535.002547  0
  -143.349523  -207.470139  0
  41.614005  36.870244  0
  32.983572  12.824386  0
  -122.840435  -187.410380  0
  180.817379  1929.806935  0
  -37.027649  20.876472  0
  -324.037326  -499.891919  0
  74.986720  86.647696  0
  13.287361  -38.783125  0
  -240.950964  -376.263293  0
  117.889136  118.754785  0
  157.496075  147.507560  0
  498.091105  4781.515191  0
  -27.673856  -15.522034  0
  -17.108837  -114.171213  0
  -693.995568  -1122.000257  0
  75.239993  139.638472  0
  -406.070256  -662.874571  0
  149.827370  189.089406  0
  194.428372  177.075354  0
  -32.417422  -185.425837  0
  246.431901  303.675456  0
  389.646646  -481.294618  0
  1128.096373  10218.254357  0
  -76.053354  -633.893692  0
  -1423.668953  -2385.765113  0
  -94.971603  -461.531134  0
  -556.269570  -1008.180549  0
  342.056132  441.750419  0
  200.537765  209.356174  0
  -93.734401  -62.892167  0
  15.444132  -142.349415  0
  2271.395556  20239.245278  0
  -2800.880344  -4764.400190  0
  361.421989  536.617751  0
  -58.005908  901.814928  0
  72.993714  237.545399  0
  -308.131773  -985.227431  0
  -146.196572  187.997768  0
  37.465033  2724.779157  0
  211.122006  441.415025  0
  3802.750889  40808.578889  0
  -315.485630  -85.952942  0
  -3923.827874  -5020.619430  0
  -156.217647  309.267626  0
  218.490928  5421.368013  0
  -1104.565966  -1132.274571  0
  -107.049621  54.298648  0
  -746.685367  -742.883916  0
  -102576.813524  -1307122.132099  0
  -260134.979394  194568.308774  0
  500.578976  8477.496092  0
  3801.581329  6900.953666  0
  -433.282924  -473.625541  0
  2061.959215  2692.742672  0
  880.954082  747.775989  0
  333577.789808  974858.142995  0
  861.881411  10845.473212  0
  -5553.510648  -11212.122061  0
  -1186.256157  -1863.267715  0
  125.511816  -230.903000  0
  -115.031421  8.740971  0
  76.521713  87.718646  0
  1508.242419  11105.060900  0
  2140.467991  21648.631979  0
  -1276.629290  -2971.837787  0
  -95.914180  -307.871509  0
  -904.234325  -1738.645241  0
  -472.576714  -660.365043  0
  1188.301546  8497.736561  0
  -231.452263  -268.725588  0
  709.795259  7829.744495  0
  -106.020012  -323.447102  0
  -192.838805  -260.635518  0
  -325.291639  -743.946532  0
  -286.538375  -492.790509  0
  654.038596  5123.063726  0
  -199.054341  -266.776129  0
  198.400501  2655.871918  0
  -147.533695  -146.287219  0
  74.722369  172.075320  0
  -70.288999  -225.875424  0
  -118.943337  -255.251151  0
  284.558377  2568.548622  0
  -109.572762  -166.258131  0
  -79.885065  -58.823062  0
  45.722606  806.789464  0
  52.929693  155.645796  0
  3.116727  -40.850907  0
  -36.372712  -108.920678  0
  98.971010  1099.912153  0
  -47.562502  -82.015385  0
  -34.805078  -15.150880  0
  8.195686  208.945673  0
  20.094521  79.902667  0
  12.836137  5.847784  0
  24.893749  402.814575  0
  -6.159195  -39.734689  0
  -16.763837  -33.930747  0
  -12.753775  0.064833  0
  1.546581  43.224392  0
  3.977147  31.716540  0
  8.075439  9.886696  0
  2.152418  122.977261  0
  1.577232  -12.272292  0
  -4.552357  -11.869716  0
  -4.104705  2.743395  0
  0.954996  8.291373  0
  -0.786184  10.129029  0
  -1.946602  29.246327  0
  3.379904  5.695095  0
  2.048513  -3.028645  0
  -0.751000  -3.435086  0
  -1.352695  1.785410  0
  0.684570  4.853271  0
  -1.266585  4.583421  0
  -0.979982  2.618024  0
  1.004040  2.303969  0
  1.083018  -0.501158  0
  0.050480  -0.767382  0
  -0.587927  0.671730  0
  -0.319979  0.243123  0
  0.176579  5.766535  0
  -0.233728  0.577433  0
  0.086698  0.583347  0
  0.280352  -0.073305  0
  0.110758  -0.084423  0
  -0.209100  0.201096  0
  0.065865  -0.049505  0
  31905.191687  3.074689  0
  2.090182  0.437797  0
  2.118240  0.747919  0
  1.116194  0.323953  0
  0.347354  0.064131  0
  0.041070  -0.061591  0
  0.010883  -0.011041  0
VECTORS stress_sens_240 double
  -0.083020  -0.005774  0
  0.012344  -0.002709  0
  0.014729  0.099413  0
  -0.015622  -0.021687  0
  -0.031460  -0.015540  0
  0.032930  0.334717  0
  -0.024616  -0.037016  0
  -0.036767  -0.048935  0
  -0.052567  -0.076002  0
  0.010204  0.009386  0
  0.066267  0.660750  0
  -0.037752  -0.059491  0
  -0.017344  -0.029643  0
  -0.034522  -0.060413  0
  -0.077512  -0.116169  0
  0.119698  1.154525  0
  0.032822  0.028631  0
  -0.053756  -0.089806  0
  0.020409  0.013403  0
  -0.065809  -0.107990  0
  -0.107252  -0.165169  0
  0.013170  -0.006260  0
  -0.012710  -0.037318  0
  0.195961  1.821469  0
  -0.011646  0.026924  0
  -0.112915  -0.171654  0
  -0.061220  -0.113647  0
  0.050373  0.081522  0
  -0.131346  -0.210306  0
  0.065285  0.084966  0
  -0.065174  -0.100571  0
  -0.172776  -0.246977  0
  0.078319  0.098901  0
  0.105227  -0.076376  0
  0.284242  2.541084  0
  -0.002398  0.040687  0
  -0.032535  -0.089337  0
  0.015745  0.290583  0
  -0.128290  -0.223755  0
  0.065535  0.086304  0
  -0.164482  -0.211980  0
  0.056586  0.683916  0
  -0.236431  -0.314685  0
  0.345612  2.940374  0
  0.090543  0.078702  0
  -0.010657  0.004425  0
  0.134487  1.335236  0
  -0.330349  -0.381599  0
  -0.062222  -0.157003  0
  -0.283973  -0.335576  0
  0.265758  2.305491  0
  -0.205018  -0.206156  0
  0.289870  2.190375  0
  -0.574491  -0.603714  0
  0.418709  0.585998  0
  0.113954  0.056788  0
  0.458448  3.542200  0
  -0.286123  -0.251536  0
  -0.581262  -0.613812  0
  -0.885541  -0.843087  0
  -0.052999  -1.264762  0
  1.143407  1.801257  0
  0.698188  4.748266  0
  0.440568  0.481176  0
  -1.180346  -1.265763  0
  -0.220416  -0.007341  0
  -1.208771  -1.028869  0
  -0.955443  -9.995031  0
  0.926782  5.202910  0
  2.562014  4.368779  0
  0.903646  1.118274  0
  -1.948124  -2.127806  0
  -0.113917  0.388568  0
  -1.426346  -1.078474  0
  1.026865  3.611607  0
  -2.772880  -27.739820  0
  5.060836  9.321963  0
  -2.618501  -3.002318  0
  1.342730  1.790857  0
  -0.113337  0.748029  0
  0.837533  -1.811773  0
  -1.344532  -0.980751  0
  -5.794310  -59.096924  0
  8.937143  18.110477  0
  -2.591994  -3.470496  0
  1.309551  1.956757  0
  -0.527335  0.554742  0
  0.235890  -12.651550  0
  -0.656858  -0.924229  0
  -9.753507  -108.049882  0
  -0.972387  -2.940015  0
  13.728659  32.238571  0
  -0.079097  0.498720  0
  -1.602291  -1.078594  0
  -0.734149  -28.530720  0
  1.229119  -1.269819  0
  2.841981  -0.788861  0
  -12.520753  -174.016305  0
  16.245342  51.788509  0
  -4.065436  -4.263711  0
  -2.361779  -4.913574  0
  -1.882626  -44.407936  0
  5.449086  -1.664578  0
  7.368364  3.742586  0
  -6.965458  -243.614653  0
  5.657674  71.894176  0
  -10.834094  -13.211668  0
  -3.246341  -49.696166  0
  2.538592  -9.299092  0
  11.448067  2.208601  0
  6.581176  11.422561  0
  25.901507  -279.488892  0
  -46.967488  81.075484  0
  -10.948384  -18.230935  0
  -4.501403  -36.951134  0
  21.693070  -2.346632  0
  1.891542  22.126883  0
  -1.473384  12.911146  0
  133.504068  -233.041164  0
  -211.033551  122.466621  0
  -3.967621  -13.272018  0
  49.373913  29.746212  0
  -23.755029  54.330578  0
  -16.768267  14.021391  0
  -6.206775  2.880177  0
  488.562456  -221.799511  0
  -1.089085  4.190383  0
  -597.840236  1180.099510  0
  -183.486136  -22.913807  0
  -34.128900  -27.671491  0
  -8.036999  -17.109267  0
  -0.550175  -7.570717  0
  1.319446  6.456925  0
  1308346.091482  -192048.807036  0
  -1286292.180514  -31947.396636  0
  115.424043  334.706629  0
  73.282395  113.036005  0
  22.701125  9.447534  0
  7.561440  -10.258533  0
  -2.181955  1.108536  0
  -8786.301252  250576.175132  0
  -1742.884512  -431.859506  0
  -1034.102955  -267.210195  0
  -394.551860  -67.448337  0
  -97.018462  0.133919  0
  -13.564707  8.080387  0
  -0.650987  0.651060  0
