# vtk DataFile Version 2.0
geometrically linear steady-state plane stress analysis
ASCII

DATASET UNSTRUCTURED_GRID
POINTS 1096 double
  -5.042670  -1.357980  0.000000
  -5.001717  -1.495384  0.000000
  -5.042670  -1.163360  0.000000
  -4.920100  -1.279519  0.000000
  -4.899466  -1.085756  0.000000
  -4.831258  -1.427000  0.000000
  -5.042670  -0.968740  0.000000
  -4.922011  -1.633495  0.000000
  -4.772601  -1.223934  0.000000
  -4.680946  -1.362531  0.000000
  -4.888887  -0.890508  0.000000
  -4.735467  -1.574013  0.000000
  -4.750905  -1.017240  0.000000
  -4.826858  -1.777012  0.000000
  -5.042670  -0.774130  0.000000
  -4.619123  -1.163421  0.000000
  -4.571808  -1.513758  0.000000
  -4.731469  -0.817108  0.000000
  -4.512995  -1.302465  0.000000
  -4.597913  -0.954576  0.000000
  -4.881397  -0.695814  0.000000
  -4.633025  -1.723298  0.000000
  -5.042670  -0.579510  0.000000
  -4.723096  -1.924705  0.000000
  -4.459501  -1.101792  0.000000
  -4.459561  -1.666784  0.000000
  -4.394964  -1.456369  0.000000
  -4.566290  -0.756168  0.000000
  -4.719916  -0.615902  0.000000
  -4.338417  -1.267251  0.000000
  -4.525195  -1.874973  0.000000
  -4.875211  -0.501188  0.000000
  -4.425835  -0.911952  0.000000
  -4.304701  -1.051364  0.000000
  -5.042670  -0.384900  0.000000
  -4.613552  -2.075592  0.000000
  -4.277580  -1.612310  0.000000
  -4.343956  -1.822139  0.000000
  -4.410380  -0.708097  0.000000
  -4.217389  -1.402496  0.000000
  -4.547889  -0.551940  0.000000
  -4.711584  -0.417690  0.000000
  -4.172362  -1.195353  0.000000
  -4.869522  -0.306492  0.000000
  -4.413062  -2.028882  0.000000
  -4.255269  -0.850444  0.000000
  -4.111806  -1.554505  0.000000
  -4.125233  -1.016413  0.000000
  -4.499527  -2.229062  0.000000
  -5.042670  -0.190280  0.000000
  -4.391404  -0.511132  0.000000
  -4.157810  -1.773490  0.000000
  -4.533557  -0.355118  0.000000
  -4.226709  -1.980805  0.000000
  -4.233340  -0.656196  0.000000
  -4.038092  -1.351799  0.000000
  -4.702612  -0.221143  0.000000
  -3.992946  -1.173922  0.000000
  -4.085870  -0.814213  0.000000
  -4.297269  -2.184660  0.000000
  -4.863808  -0.111684  0.000000
  -4.370924  -0.316844  0.000000
  -3.969349  -1.731532  0.000000
  -3.924652  -1.527810  0.000000
  -4.208217  -0.462456  0.000000
  -4.041234  -1.938578  0.000000
  -5.042670  0.004340  0.000000
  -4.381653  -2.384605  0.000000
  -3.943050  -0.974233  0.000000
  -4.518175  -0.160182  0.000000
  -4.113655  -2.145045  0.000000
  -4.050343  -0.611243  0.000000
  -3.857624  -1.324723  0.000000
  -4.692317  -0.025805  0.000000
  -3.919505  -0.764923  0.000000
  -3.813869  -1.115747  0.000000
  -4.857582  0.083155  0.000000
  -4.178222  -2.341912  0.000000
  -3.859898  -1.894044  0.000000
  -4.179600  -0.274096  0.000000
  -4.344172  -0.125042  0.000000
  -3.795758  -1.706884  0.000000
  -3.735841  -1.498193  0.000000
  -3.921952  -2.104500  0.000000
  -4.021585  -0.409364  0.000000
  -3.766162  -0.915251  0.000000
  -4.260031  -2.541661  0.000000
  -5.042670  0.198950  0.000000
  -4.500426  0.033000  0.000000
  -3.895032  -0.559836  0.000000
  -3.983133  -2.295412  0.000000
  -3.672801  -1.274186  0.000000
  -4.679859  0.168244  0.000000
  -3.739485  -0.712125  0.000000
  -4.850100  0.277886  0.000000
  -4.055885  -2.499907  0.000000
  -3.625870  -1.077771  0.000000
  -4.141009  -0.094743  0.000000
  -3.731493  -2.054892  0.000000
  -3.607992  -1.659786  0.000000
  -3.993799  -0.212652  0.000000
  -4.300195  0.064099  0.000000
  -3.650658  -1.853126  0.000000
  -3.562951  -1.450284  0.000000
  -3.607126  -0.881289  0.000000
  -4.474851  0.199579  0.000000
  -3.788810  -2.257553  0.000000
  -3.828546  -0.361886  0.000000
  -4.134620  -2.699477  0.000000
  -5.042670  0.393570  0.000000
  -3.510108  -1.249633  0.000000
  -4.650444  0.337234  0.000000
  -3.858259  -2.458786  0.000000
  -3.674807  -0.520961  0.000000
  -3.470227  -1.049023  0.000000
  -3.541933  -0.690055  0.000000
  -3.940409  -2.654974  0.000000
  -3.958216  -0.024734  0.000000
  -4.839363  0.472110  0.000000
  -3.626300  -2.226975  0.000000
  -4.094697  0.111318  0.000000
  -3.538522  -2.031077  0.000000
  -3.421002  -1.603534  0.000000
  -3.792804  -0.174165  0.000000
  -3.461337  -1.828827  0.000000
  -4.270569  0.256265  0.000000
  -3.373074  -1.410590  0.000000
  -3.678909  -2.429532  0.000000
  -4.435463  0.390198  0.000000
  -3.415184  -0.847420  0.000000
  -3.630068  -0.323328  0.000000
  -5.042670  0.588180  0.000000
  -4.005234  -2.857279  0.000000
  -3.321661  -1.200378  0.000000
  -3.494445  -0.495407  0.000000
  -4.622142  0.529808  0.000000
  -3.737695  -2.627898  0.000000
  -3.743488  -0.013590  0.000000
  -3.280838  -0.991406  0.000000
  -3.432433  -2.200193  0.000000
  -3.889370  0.151608  0.000000
  -4.050361  0.285374  0.000000
  -3.291934  -1.769459  0.000000
  -3.517665  -2.396306  0.000000
  -3.346188  -2.005398  0.000000
  -3.343967  -0.654434  0.000000
  -3.807552  -2.813871  0.000000
  -4.823379  0.659671  0.000000
  -3.587360  -0.162405  0.000000
  -3.232072  -1.562371  0.000000
  -4.214570  0.436621  0.000000
  -3.576443  -2.602473  0.000000
  -3.184434  -1.352765  0.000000
  -3.175222  -1.180523  0.000000
  -3.428829  -0.306146  0.000000
  -4.390468  0.578408  0.000000
  -3.213553  -0.828534  0.000000
  -5.042670  0.782800  0.000000
  -3.871605  -3.013350  0.000000
  -3.287978  -0.475300  0.000000
  -3.615235  -2.773699  0.000000
  -4.575309  0.708224  0.000000
  -3.338221  -2.392867  0.000000
  -3.838830  0.338463  0.000000
  -3.534527  0.028597  0.000000
  -3.673786  0.189193  0.000000
  -3.084230  -0.994635  0.000000
  -3.992661  0.479942  0.000000
  -3.388380  -2.557406  0.000000
  -3.145098  -0.634973  0.000000
  -3.067415  -1.695656  0.000000
  -3.384732  -0.110445  0.000000
  -3.675073  -2.974156  0.000000
  -3.039999  -1.509107  0.000000
  -4.746980  0.841362  0.000000
  -4.158922  0.625233  0.000000
  -3.194531  -2.267168  0.000000
  -3.093903  -1.985499  0.000000
  -3.426157  -2.732650  0.000000
  -4.333755  0.756762  0.000000
  -3.223550  -0.262110  0.000000
  -2.968359  -1.248717  0.000000
  -3.009650  -0.806618  0.000000
  -3.106028  -0.436671  0.000000
  -3.495716  0.223800  0.000000
  -3.482559  -2.933345  0.000000
  -4.489370  0.899096  0.000000
  -3.201247  -2.509401  0.000000
  -3.615228  0.367554  0.000000
  -3.770839  0.521123  0.000000
  -3.328249  0.078445  0.000000
  -3.929993  0.669735  0.000000
  -2.880915  -0.981173  0.000000
  -3.239569  -2.691929  0.000000
  -4.098619  0.803225  0.000000
  -2.895912  -1.820272  0.000000
  -3.172288  -0.076705  0.000000
  -2.945354  -0.584760  0.000000
  -2.848094  -1.531992  0.000000
  -3.043296  -0.249994  0.000000
  -3.293574  -2.892635  0.000000
  -4.246940  0.951198  0.000000
  -2.949953  -2.257802  0.000000
  -2.878204  -2.055511  0.000000
  -2.761270  -1.332774  0.000000
  -3.013419  -2.456605  0.000000
  -3.271354  0.220195  0.000000
  -2.808802  -0.753953  0.000000
  -2.897137  -0.411316  0.000000
  -3.397241  0.392925  0.000000
  -2.736451  -1.123454  0.000000
  -3.550019  0.560331  0.000000
  -3.117436  0.078839  0.000000
  -3.054916  -2.652437  0.000000
  -3.704077  0.711876  0.000000
  -3.868594  0.847231  0.000000
  -2.713186  -1.699238  0.000000
  -2.744435  -1.891910  0.000000
  -3.107474  -2.853053  0.000000
  -2.962633  -0.064825  0.000000
  -2.656364  -1.472223  0.000000
  -4.012874  0.999222  0.000000
  -2.670295  -0.922986  0.000000
  -2.742635  -0.557928  0.000000
  -2.827523  -0.235439  0.000000
  -3.223143  0.415193  0.000000
  -2.597319  -1.289027  0.000000
  -2.756175  -2.227231  0.000000
  -2.821821  -2.421376  0.000000
  -2.880593  -2.616438  0.000000
  -3.058411  0.269806  0.000000
  -2.658270  -2.038985  0.000000
  -3.330382  0.598086  0.000000
  -2.601274  -0.724968  0.000000
  -3.480928  0.751841  0.000000
  -3.642626  0.888922  0.000000
  -2.693695  -0.356863  0.000000
  -2.532973  -1.091084  0.000000
  -2.923699  -2.815232  0.000000
  -2.575045  -1.847858  0.000000
  -2.906084  0.129057  0.000000
  -2.528624  -1.645663  0.000000
  -3.784293  1.044007  0.000000
  -2.748850  -0.023150  0.000000
  -2.549264  -0.521297  0.000000
  -2.452405  -1.448679  0.000000
  -2.469157  -0.891180  0.000000
  -2.662959  -2.408802  0.000000
  -2.722170  -2.600003  0.000000
  -2.633839  -0.167102  0.000000
  -3.008757  0.465487  0.000000
  -2.559055  -2.227429  0.000000
  -2.399676  -1.243093  0.000000
  -2.759403  -2.782933  0.000000
  -3.420036  0.928545  0.000000
  -3.112035  0.634911  0.000000
  -3.260300  0.790076  0.000000
  -2.421323  -0.692177  0.000000
  -2.844957  0.320628  0.000000
  -2.455793  -2.017497  0.000000
  -3.559886  1.086087  0.000000
  -2.399411  -1.817671  0.000000
  -2.483075  -0.323564  0.000000
  -2.688710  0.168990  0.000000
  -2.318949  -1.050273  0.000000
  -2.325779  -1.618298  0.000000
  -2.580978  -2.593479  0.000000
  -2.269595  -1.418105  0.000000
  -2.360957  -0.496619  0.000000
  -2.539041  0.009358  0.000000
  -2.614147  -2.755711  0.000000
  -2.265827  -0.845420  0.000000
  -3.200484  0.966518  0.000000
  -2.787274  0.513915  0.000000
  -2.420929  -0.124459  0.000000
  -3.041995  0.827142  0.000000
  -2.193581  -1.221063  0.000000
  -2.894864  0.671269  0.000000
  -3.339133  1.125895  0.000000
  -2.414344  -2.431415  0.000000
  -2.318947  -2.179830  0.000000
  -2.256599  -1.975964  0.000000
  -2.633947  0.362568  0.000000
  -2.199313  -1.770378  0.000000
  -2.212923  -0.658063  0.000000
  -2.297154  -0.303461  0.000000
  -2.443335  -2.612686  0.000000
  -2.487176  -2.733522  0.000000
  -2.142489  -1.022414  0.000000
  -2.487662  0.208025  0.000000
  -2.121419  -1.581260  0.000000
  -2.349436  -2.589501  0.000000
  -2.333574  0.056439  0.000000
  -2.150049  -0.465591  0.000000
  -2.072228  -0.827814  0.000000
  -2.046829  -1.383814  0.000000
  -2.378471  -2.715687  0.000000
  -2.983967  1.003389  0.000000
  -2.212864  -2.340406  0.000000
  -3.121978  1.163912  0.000000
  -2.826148  0.863702  0.000000
  -2.122631  -2.101007  0.000000
  -2.567256  0.555515  0.000000
  -2.679089  0.707858  0.000000
  -2.203367  -0.115605  0.000000
  -1.990071  -1.179080  0.000000
  -2.054921  -1.933015  0.000000
  -2.413535  0.400678  0.000000
  -2.288994  -2.700235  0.000000
  -1.987714  -1.754694  0.000000
  -2.003163  -0.628573  0.000000
  -2.084311  -0.265071  0.000000
  -1.933055  -0.998540  0.000000
  -2.177994  -2.532641  0.000000
  -2.270567  0.255884  0.000000
  -1.915248  -1.554846  0.000000
  -2.262854  -2.806530  0.000000
  -2.032758  -2.308037  0.000000
  -2.770879  1.040050  0.000000
  -2.516776  0.746448  0.000000
  -1.857237  -1.354175  0.000000
  -2.113125  0.075486  0.000000
  -1.881706  -0.792492  0.000000
  -2.908768  1.200817  0.000000
  -1.938538  -0.427467  0.000000
  -2.172850  -2.705306  0.000000
  -1.950548  -2.111019  0.000000
  -2.613355  0.900776  0.000000
  -1.994110  -0.080621  0.000000
  -1.856910  -1.919806  0.000000
  -1.785136  -1.156057  0.000000
  -2.223491  -2.908668  0.000000
  -2.151835  -2.802356  0.000000
  -2.336370  0.673475  0.000000
  -1.772715  -1.724497  0.000000
  -2.176166  0.474855  0.000000
  -1.793191  -0.605544  0.000000
  -1.868359  -0.231951  0.000000
  -1.727588  -0.952547  0.000000
  -2.031510  -2.711035  0.000000
  -1.930914  -2.500627  0.000000
  -1.709986  -1.517979  0.000000
  -2.176901  -3.008555  0.000000
  -2.561981  1.077865  0.000000
  -2.700083  1.237773  0.000000
  -1.827502  -2.293874  0.000000
  -2.095566  -2.903424  0.000000
  -1.647559  -1.330176  0.000000
  -1.739600  -0.408207  0.000000
  -1.984335  0.317860  0.000000
  -2.404845  0.939520  0.000000
  -1.667029  -0.787638  0.000000
  -1.732634  -2.101974  0.000000
  -1.648533  -1.908113  0.000000
  -2.124863  -3.106295  0.000000
  -2.048565  -2.998393  0.000000
  -2.106100  0.661306  0.000000
  -1.833575  0.147879  0.000000
  -1.577214  -1.116583  0.000000
  -1.613790  -0.582107  0.000000
  -1.928260  -2.866983  0.000000
  -1.962105  0.527331  0.000000
  -1.652560  -0.253166  0.000000
  -1.556155  -1.716424  0.000000
  -1.807728  -2.684839  0.000000
  -1.521127  -0.944959  0.000000
  -1.721510  -2.483539  0.000000
  -2.496353  1.276621  0.000000
  -1.503707  -1.494879  0.000000
  -2.346694  1.109125  0.000000
  -2.005194  -3.105639  0.000000
  -2.067841  -3.201427  0.000000
  -1.664576  -0.044780  0.000000
  -2.189534  0.944022  0.000000
  -1.620117  -2.293419  0.000000
  -2.038657  0.792770  0.000000
  -1.440320  -1.291678  0.000000
  -1.534635  -2.095901  0.000000
  -1.523399  -0.393086  0.000000
  -1.459265  -0.743613  0.000000
  -1.908234  0.666754  0.000000
  -1.956142  -3.179087  0.000000
  -1.739044  0.386695  0.000000
  -2.006495  -3.293692  0.000000
  -1.438417  -1.905444  0.000000
  -1.793510  0.566728  0.000000
  -1.852491  -3.076490  0.000000
  -1.371192  -1.100038  0.000000
  -1.721306  -2.849934  0.000000
  -1.410262  -0.536894  0.000000
  -1.465252  -0.190599  0.000000
  -1.606559  -2.670269  0.000000
  -1.352341  -1.710059  0.000000
  -1.513526  -2.471401  0.000000
  -1.314936  -0.896000  0.000000
  -1.305899  -1.469350  0.000000
  -1.880459  -3.267402  0.000000
  -1.652527  0.511395  0.000000
  -1.941160  -3.383063  0.000000
  -1.414411  -2.282201  0.000000
  -1.677951  0.645984  0.000000
  -1.324713  -2.085602  0.000000
  -1.229975  -1.270513  0.000000
  -1.317146  -0.356725  0.000000
  -1.405410  0.009631  0.000000
  -1.252623  -0.695801  0.000000
  -1.455205  0.196518  0.000000
  -1.536588  -2.840826  0.000000
  -1.568393  0.586397  0.000000
  -1.819514  -3.367229  0.000000
  -1.617615  -3.042235  0.000000
  -1.229492  -1.895869  0.000000
  -1.871990  -3.469542  0.000000
  -1.488683  0.459517  0.000000
  -1.159368  -1.069774  0.000000
  -1.571956  0.720508  0.000000
  -1.171836  -1.640455  0.000000
  -1.192212  -0.539249  0.000000
  -1.265109  -0.159712  0.000000
  -1.396705  -2.681798  0.000000
  -1.303976  -2.474620  0.000000
  -1.665436  -3.295788  0.000000
  -1.748709  -3.433044  0.000000
  -1.102708  -0.861666  0.000000
  -1.094249  -1.444553  0.000000
  -1.452527  0.640732  0.000000
  -1.203617  -2.282036  0.000000
  -1.799322  -3.552944  0.000000
  -1.140073  -0.332995  0.000000
  -1.466631  0.789843  0.000000
  -1.029496  -1.243256  0.000000
  -1.215286  0.074741  0.000000
  -1.113387  -2.086016  0.000000
  -1.043872  -0.693367  0.000000
  -1.272425  0.322293  0.000000
  -1.663802  -3.498013  0.000000
  -0.975073  -1.042973  0.000000
  -1.343266  -2.959518  0.000000
  -1.016845  -1.893872  0.000000
  -1.723286  -3.633205  0.000000
  -1.348965  0.715042  0.000000
  -0.964830  -1.609160  0.000000
  -1.195134  -2.668343  0.000000
  -1.265053  0.577471  0.000000
  -0.981833  -0.491890  0.000000
  -1.360532  0.854158  0.000000
  -1.044364  -0.145231  0.000000
  -1.092425  -2.475197  0.000000
  -1.603394  -3.587027  0.000000
  -0.893447  -0.848395  0.000000
  -0.883687  -1.412251  0.000000
  -0.992161  -2.273118  0.000000
  -1.070963  0.241043  0.000000
  -1.643996  -3.710255  0.000000
  -1.246618  0.775182  0.000000
  -0.929038  -0.285481  0.000000
  -0.820501  -1.202888  0.000000
  -0.986347  0.058327  0.000000
  -1.468803  -3.505046  0.000000
  -0.901210  -2.076367  0.000000
  -1.295440  -3.207995  0.000000
  -1.253225  0.914317  0.000000
  -1.123716  -2.866189  0.000000
  -0.833923  -0.645076  0.000000
  -1.544700  -3.663020  0.000000
  -0.830891  -1.787769  0.000000
  -1.057728  0.458213  0.000000
  -0.759029  -1.026788  0.000000
  -1.561674  -3.784033  0.000000
  -0.753261  -1.587179  0.000000
  -1.146302  0.856129  0.000000
  -0.835597  -0.103444  0.000000
  -0.770802  -0.443660  0.000000
  -1.115804  -3.089389  0.000000
  -0.693148  -1.385670  0.000000
  -1.144408  0.969924  0.000000
  -1.445944  -3.728470  0.000000
  -1.034537  0.733596  0.000000
  -1.256679  -3.442163  0.000000
  -0.680454  -0.807936  0.000000
  -0.889395  -2.631879  0.000000
  -0.779673  -2.263518  0.000000
  -0.868265  0.308563  0.000000
  -1.052613  0.889640  0.000000
  -1.476427  -3.854311  0.000000
  -0.708134  -0.282623  0.000000
  -0.607946  -1.190332  0.000000
  -1.116541  -3.309863  0.000000
  -0.765767  0.099161  0.000000
  -0.649665  -1.957258  0.000000
  -1.290564  -3.656866  0.000000
  -0.618866  -0.607351  0.000000
  -0.758078  -2.459608  0.000000
  -0.931579  -2.976336  0.000000
  -1.375727  -3.803491  0.000000
  -0.607762  -1.756355  0.000000
  -1.034025  1.021304  0.000000
  -0.552591  -0.983870  0.000000
  -0.831471  0.569817  0.000000
  -0.543552  -1.550120  0.000000
  -1.388455  -3.921098  0.000000
  -0.811005  -2.840414  0.000000
  -0.930539  0.930030  0.000000
  -0.558894  -0.435796  0.000000
  -0.612401  -0.091188  0.000000
  -1.112011  -3.530291  0.000000
  -0.930037  -3.199169  0.000000
  -0.674193  0.250437  0.000000
  -0.487730  -0.785554  0.000000
  -1.277525  -3.856551  0.000000
  -0.465115  -1.358467  0.000000
  -0.922133  1.068274  0.000000
  -0.678071  -2.667978  0.000000
  -0.477775  -1.855174  0.000000
  -0.494979  -0.233296  0.000000
  -1.297881  -3.984239  0.000000
  -0.661609  0.471568  0.000000
  -0.407611  -1.153874  0.000000
  -0.772268  0.826459  0.000000
  -0.552335  0.113593  0.000000
  -0.822490  0.973109  0.000000
  -0.932390  -3.420343  0.000000
  -1.128224  -3.772887  0.000000
  -0.407056  -0.589116  0.000000
  -0.482480  -2.235471  0.000000
  -0.546104  -2.496086  0.000000
  -0.396923  -1.718581  0.000000
  -0.744971  -3.086622  0.000000
  -1.201547  -3.925643  0.000000
  -0.338880  -0.950581  0.000000
  -0.808747  1.110761  0.000000
  -0.959765  -3.632787  0.000000
  -0.599099  -2.876282  0.000000
  -0.501411  0.319295  0.000000
  -1.204893  -4.043742  0.000000
  -0.304807  -1.525038  0.000000
  -0.346740  -0.384780  0.000000
  -0.403157  -0.047967  0.000000
  -0.713045  1.011732  0.000000
  -0.356636  -2.042603  0.000000
  -0.572793  0.680985  0.000000
  -0.269761  -0.764272  0.000000
  -0.735503  -3.330168  0.000000
  -1.099394  -3.970685  0.000000
  -0.254322  -1.315671  0.000000
  -0.465949  -2.704176  0.000000
  -0.262398  -1.848659  0.000000
  -0.693961  1.148616  0.000000
  -0.354661  0.160293  0.000000
  -0.282527  -0.182061  0.000000
  -1.109620  -4.099438  0.000000
  -0.957393  -3.875153  0.000000
  -0.433121  0.526065  0.000000
  -0.178836  -1.126727  0.000000
  -0.328863  -2.425572  0.000000
  -0.192344  -0.545239  0.000000
  -0.595439  1.061129  0.000000
  -0.520637  -3.084259  0.000000
  -1.018251  -4.033381  0.000000
  -0.522319  0.928742  0.000000
  -0.722072  -3.569649  0.000000
  -0.799823  -3.722720  0.000000
  -0.234995  -2.229279  0.000000
  -0.145048  -1.680371  0.000000
  -0.119646  -0.926456  0.000000
  -0.577952  1.181810  0.000000
  -0.098435  -1.468385  0.000000
  -0.386681  -2.911916  0.000000
  -0.197933  0.006460  0.000000
  -1.012229  -4.151318  0.000000
  -0.130463  -0.343694  0.000000
  -0.141919  -2.033499  0.000000
  -0.502712  1.088401  0.000000
  -0.256388  0.372008  0.000000
  -0.065509  -0.720094  0.000000
  -0.354338  0.727297  0.000000
  -0.912769  -4.070243  0.000000
  -0.253451  -2.740663  0.000000
  -0.056288  -1.837029  0.000000
  -0.012827  -1.273656  0.000000
  -0.510964  -3.430538  0.000000
  -0.781027  -3.961017  0.000000
  -0.063046  -0.166094  0.000000
  -0.460792  1.210236  0.000000
  0.020247  -1.060827  0.000000
  -0.139224  0.214492  0.000000
  -0.912862  -4.199275  0.000000
  -0.162973  -2.597162  0.000000
  -0.000012  -0.521327  0.000000
  -0.105097  -2.414543  0.000000
  -0.377876  1.100544  0.000000
  -0.633274  -3.799638  0.000000
  0.037712  -1.644278  0.000000
  -0.827427  -4.125698  0.000000
  -0.296276  0.944095  0.000000
  -0.015068  -2.216443  0.000000
  -0.280573  -3.136375  0.000000
  -0.339659  -3.296292  0.000000
  0.092200  -0.877136  0.000000
  -0.143376  0.602288  0.000000
  -0.483312  -3.650589  0.000000
  0.114333  -1.442739  0.000000
  -0.174065  -2.945482  0.000000
  -0.342730  1.233908  0.000000
  0.022539  0.032113  0.000000
  -0.811694  -4.243256  0.000000
  0.083820  -0.324253  0.000000
  0.072811  -2.017943  0.000000
  0.151894  -1.240063  0.000000
  -0.155894  0.805917  0.000000
  0.149450  -0.684286  0.000000
  -0.264380  1.121018  0.000000
  -0.718881  -4.154640  0.000000
  0.158363  -1.824008  0.000000
  -0.044173  -2.784726  0.000000
  -0.311690  -3.516468  0.000000
  -0.589671  -4.042141  0.000000
  0.034106  0.410508  0.000000
  0.151882  -0.120545  0.000000
  -0.461166  -3.862985  0.000000
  0.238139  -1.044356  0.000000
  0.052380  -2.588926  0.000000
  0.091526  0.202178  0.000000
  -0.708875  -4.283173  0.000000
  0.227496  -1.624919  0.000000
  0.109823  -2.399882  0.000000
  0.215537  -0.479101  0.000000
  -0.223908  1.252780  0.000000
  -0.170591  -3.328174  0.000000
  -0.102533  0.981575  0.000000
  -0.628174  -4.204479  0.000000
  -0.146433  1.154074  0.000000
  -0.065482  -3.135555  0.000000
  0.286728  -1.416885  0.000000
  0.198242  -2.201467  0.000000
  0.304127  -0.839492  0.000000
  0.030851  -2.941491  0.000000
  -0.285619  -3.736203  0.000000
  0.042703  0.784797  0.000000
  0.287627  -2.003811  0.000000
  0.234928  0.074365  0.000000
  -0.604581  -4.319012  0.000000
  0.300624  -0.284574  0.000000
  -0.104813  1.266714  0.000000
  0.367109  -1.216695  0.000000
  -0.518947  -4.223405  0.000000
  0.361235  -0.631740  0.000000
  -0.036371  1.148558  0.000000
  0.146435  0.598103  0.000000
  0.171225  -2.775673  0.000000
  0.370919  -1.782718  0.000000
  -0.395061  -4.101881  0.000000
  0.423996  -1.015079  0.000000
  0.267729  -2.582568  0.000000
  -0.257506  -3.935742  0.000000
  0.437762  -1.576356  0.000000
  0.371099  -0.098168  0.000000
  0.325149  -2.383840  0.000000
  -0.498971  -4.350680  0.000000
  0.305673  0.279752  0.000000
  0.434528  -0.459867  0.000000
  0.108878  0.999259  0.000000
  -0.423874  -4.266065  0.000000
  0.014273  1.275758  0.000000
  0.481367  -0.815947  0.000000
  0.082234  1.172185  0.000000
  0.312911  0.449522  0.000000
  0.430304  -2.127711  0.000000
  -0.013021  -3.582052  0.000000
  0.517513  -1.380272  0.000000
  0.240223  0.789851  0.000000
  -0.095660  -3.798101  0.000000
  0.243310  -2.985582  0.000000
  0.506008  -1.944686  0.000000
  -0.392194  -4.378162  0.000000
  0.124022  -3.402482  0.000000
  0.454575  0.101984  0.000000
  0.515959  -0.260103  0.000000
  -0.314261  -4.276164  0.000000
  0.578693  -1.172631  0.000000
  0.133180  1.279938  0.000000
  0.574515  -0.622839  0.000000
  0.191352  1.157529  0.000000
  0.450361  -2.493059  0.000000
  0.583648  -1.742677  0.000000
  0.244509  -3.219971  0.000000
  -0.183665  -4.147319  0.000000
  0.383877  -2.820292  0.000000
  0.636008  -0.972600  0.000000
  0.646208  -1.535719  0.000000
  -0.284437  -4.401411  0.000000
  0.557754  -2.306696  0.000000
  0.322501  0.998035  0.000000
  0.586895  -0.056146  0.000000
  -0.210528  -4.296430  0.000000
  -0.013743  -3.960315  0.000000
  0.649537  -0.421494  0.000000
  0.091188  -3.776142  0.000000
  0.469705  0.603308  0.000000
  0.251690  1.279306  0.000000
  0.693379  -0.764100  0.000000
  0.527506  0.392511  0.000000
  0.523837  -2.654625  0.000000
  0.310471  1.171346  0.000000
  0.644801  -2.117933  0.000000
  0.439013  0.824615  0.000000
  0.727918  -1.336769  0.000000
  0.221109  -3.600177  0.000000
  0.455973  -3.028650  0.000000
  0.719928  -1.913805  0.000000
  -0.175867  -4.420396  0.000000
  -0.098887  -4.302099  0.000000
  0.339230  -3.419853  0.000000
  0.668544  0.141518  0.000000
  0.790422  -1.129493  0.000000
  0.732970  -0.222148  0.000000
  0.779789  -0.574914  0.000000
  0.369619  1.273871  0.000000
  0.417311  1.148107  0.000000
  0.784205  -1.709395  0.000000
  0.665004  -2.490312  0.000000
  0.040205  -4.173296  0.000000
  0.467709  -3.243343  0.000000
  0.597072  -2.863334  0.000000
  0.847730  -0.920687  0.000000
  0.169121  -3.974239  0.000000
  0.534119  0.979418  0.000000
  0.860519  -1.506540  0.000000
  -0.066643  -4.435099  0.000000
  0.763744  -2.342641  0.000000
  0.002992  -4.339835  0.000000
  0.682539  0.547173  0.000000
  0.628865  0.752746  0.000000
  0.805573  -0.030557  0.000000
  0.304561  -3.804404  0.000000
  0.860368  -0.378853  0.000000
  0.486766  1.263710  0.000000
  0.915170  -1.302875  0.000000
  0.910899  -0.750817  0.000000
  0.536213  1.152149  0.000000
  0.422597  -3.620938  0.000000
  0.736482  -2.700038  0.000000
  0.868703  -2.143840  0.000000
  0.796553  0.375212  0.000000
  0.104297  -4.332607  0.000000
  0.972034  -1.101660  0.000000
  0.669032  -3.072577  0.000000
  0.043073  -4.445491  0.000000
  0.945359  -0.184090  0.000000
  0.640016  1.120678  0.000000
  0.855312  -2.544237  0.000000
  0.602921  1.248871  0.000000
  0.997420  -0.551173  0.000000
  1.012648  -1.667738  0.000000
  0.986348  -1.927293  0.000000
  0.594314  -3.478435  0.000000
  0.384830  -3.988655  0.000000
  0.742001  0.944158  0.000000
  0.275926  -4.210235  0.000000
  0.809840  -2.908817  0.000000
  0.817504  0.711469  0.000000
  1.058363  -0.905076  0.000000
  0.153098  -4.451567  0.000000
  0.217719  -4.350992  0.000000
  0.951504  0.217984  0.000000
  1.071204  -1.458501  0.000000
  0.516558  -3.819602  0.000000
  0.980107  -2.368196  0.000000
  1.022725  0.014562  0.000000
  0.717925  1.229452  0.000000
  1.078789  -0.358892  0.000000
  0.757897  1.115119  0.000000
  1.126664  -1.258060  0.000000
  1.121778  -0.699542  0.000000
  0.305925  -4.348239  0.000000
  0.949822  -2.744333  0.000000
  0.263265  -4.453310  0.000000
  0.987178  0.484450  0.000000
  0.881760  -3.111595  0.000000
  1.189967  -1.082663  0.000000
  0.824567  -3.323478  0.000000
  1.162252  -1.830094  0.000000
  0.858036  1.075837  0.000000
  1.117567  -2.202381  0.000000
  0.831589  1.205517  0.000000
  1.070992  -2.564037  0.000000
  1.205682  -0.506462  0.000000
  0.944755  0.892771  0.000000
  1.220997  -1.621336  0.000000
  0.421156  -4.331503  0.000000
  0.796364  -3.529658  0.000000
  1.013915  0.700360  0.000000
  0.715382  -3.733256  0.000000
  0.373434  -4.450759  0.000000
  1.203539  -0.091285  0.000000
  1.272458  -0.861390  0.000000
  1.023048  -2.947552  0.000000
  1.282066  -1.413005  0.000000
  0.563928  -4.182282  0.000000
  1.238752  -2.024167  0.000000
  0.974121  1.060878  0.000000
  0.688721  -3.951771  0.000000
  0.943731  1.177159  0.000000
  1.189103  -2.410281  0.000000
  1.207923  0.160876  0.000000
  1.287072  -0.311810  0.000000
  1.178426  0.377155  0.000000
  1.337211  -1.203046  0.000000
  0.537554  -4.333764  0.000000
  1.143637  -2.772631  0.000000
  0.483404  -4.443871  0.000000
  1.350267  -0.684809  0.000000
  1.179279  0.586891  0.000000
  1.382492  -0.997559  0.000000
  1.069997  1.014140  0.000000
  0.958308  -3.516463  0.000000
  1.141252  0.826286  0.000000
  1.094856  -3.152220  0.000000
  1.374034  -1.781353  0.000000
  1.054205  1.144443  0.000000
  0.631353  -4.310051  0.000000
  1.329129  -2.224559  0.000000
  0.928189  -3.705653  0.000000
  0.593012  -4.432671  0.000000
  1.423087  -0.484064  0.000000
  1.284435  -2.609626  0.000000
  1.433690  -1.574491  0.000000
  1.371938  0.082078  0.000000
  0.894776  -3.886192  0.000000
  1.220663  -2.979572  0.000000
  1.183540  0.990091  0.000000
  0.734311  -4.275808  0.000000
  1.162799  1.107461  0.000000
  1.496547  -1.356469  0.000000
  1.115783  -3.401725  0.000000
  1.381221  0.293647  0.000000
  1.343584  0.507135  0.000000
  1.521568  -0.898698  0.000000
  1.406099  -2.431421  0.000000
  0.702094  -4.417203  0.000000
  0.850055  -4.137816  0.000000
  1.545739  -1.144716  0.000000
  1.505120  -0.316152  0.000000
  1.482248  -0.097855  0.000000
  1.274580  0.936167  0.000000
  1.327197  0.749131  0.000000
  1.504705  -1.998856  0.000000
  1.356878  -2.810478  0.000000
  1.126572  -3.621746  0.000000
  1.269374  1.066250  0.000000
  0.851536  -4.281771  0.000000
  1.593304  -0.682037  0.000000
  1.586103  -1.734306  0.000000
  0.810498  -4.397466  0.000000
  1.543953  -2.265885  0.000000
  1.321696  -3.232808  0.000000
  1.104419  -3.833248  0.000000
  1.383867  0.904494  0.000000
  1.645921  -1.524866  0.000000
  1.500474  -2.623684  0.000000
  1.641359  -0.458506  0.000000
  1.570875  0.125025  0.000000
  0.937831  -4.263275  0.000000
  1.513931  0.459206  0.000000
  1.373709  1.020766  0.000000
  0.918037  -4.373490  0.000000
  1.451508  -3.009856  0.000000
  1.706403  -1.296971  0.000000
  1.085770  -4.043255  0.000000
  1.509001  0.650711  0.000000
  1.308239  -3.505811  0.000000
  1.469776  0.844471  0.000000
  1.691974  -0.228401  0.000000
  1.613897  -2.473593  0.000000
  1.043571  -4.218226  0.000000
  1.754412  -1.080573  0.000000
  1.474526  0.972038  0.000000
  1.738489  -1.894824  0.000000
  1.573624  -2.831729  0.000000
  1.656225  0.303285  0.000000
  1.722639  -2.067225  0.000000
  1.024567  -4.345343  0.000000
  1.799352  -0.867352  0.000000
  1.321111  -3.718036  0.000000
  1.734089  -0.015089  0.000000
  1.575557  0.803283  0.000000
  1.798521  -1.685120  0.000000
  1.521029  -3.184142  0.000000
  1.811062  -0.608750  0.000000
  1.147252  -4.199925  0.000000
  1.573359  0.919860  0.000000
  1.679893  0.541447  0.000000
  1.822503  -0.361737  0.000000
  1.129920  -4.313050  0.000000
  1.858578  -1.475552  0.000000
  1.773857  -2.281540  0.000000
  1.655710  0.737414  0.000000
  1.714291  -2.668416  0.000000
  1.243069  -4.148428  0.000000
  1.539522  -3.396339  0.000000
  1.799810  0.184274  0.000000
  1.324618  -3.974509  0.000000
  1.670109  0.864086  0.000000
  1.667256  -3.023011  0.000000
  1.481160  -3.627962  0.000000
  1.233940  -4.276653  0.000000
  1.899482  -0.158593  0.000000
  1.829775  -2.492994  0.000000
  1.757963  0.688443  0.000000
  1.841943  0.419218  0.000000
  1.354506  -4.114707  0.000000
  1.970133  -0.537324  0.000000
  1.779515  -2.877305  0.000000
  1.764648  0.804748  0.000000
  2.004101  -1.143589  0.000000
  1.932170  -2.133571  0.000000
  1.933761  0.054768  0.000000
  1.832789  0.616791  0.000000
  1.336456  -4.236212  0.000000
  1.521787  -3.843590  0.000000
  1.734023  -3.233031  0.000000
  2.040004  -0.745447  0.000000
  1.435589  -4.079787  0.000000
  2.021283  -1.770473  0.000000
  2.050865  -1.540870  0.000000
  1.898180  -2.694638  0.000000
  1.856840  0.741895  0.000000
  2.039056  -0.326903  0.000000
  1.670815  -3.557805  0.000000
  1.437318  -4.191790  0.000000
  1.930980  0.560140  0.000000
  2.055112  -1.979257  0.000000
  2.104140  -1.346003  0.000000
  1.530646  -4.015004  0.000000
  1.994727  0.281974  0.000000
  2.128768  -0.965674  0.000000
  2.024979  -2.372799  0.000000
  1.777858  -3.411604  0.000000
  1.879683  -3.073658  0.000000
  1.946542  0.675609  0.000000
  2.005649  -2.559092  0.000000
  2.000047  0.483166  0.000000
  1.694550  -3.737511  0.000000
  2.108508  -0.122416  0.000000
  1.536387  -4.143465  0.000000
  1.625460  -3.978609  0.000000
  2.177115  -0.545211  0.000000
  1.996944  -2.892075  0.000000
  2.033628  0.605985  0.000000
  2.222965  -1.164067  0.000000
  2.145389  -2.193543  0.000000
  2.093748  0.418508  0.000000
  1.633506  -4.091292  0.000000
  1.712869  -3.907730  0.000000
  2.231901  -1.608773  0.000000
  2.221515  -0.309886  0.000000
  1.946520  -3.275829  0.000000
  2.255379  -0.790531  0.000000
  2.182595  0.126793  0.000000
  1.861010  -3.615621  0.000000
  2.117978  0.533099  0.000000
  2.156523  0.337271  0.000000
  2.241702  -1.929296  0.000000
  1.728517  -4.035366  0.000000
  2.133187  -2.724719  0.000000
  1.805308  -3.864023  0.000000
  2.199466  0.457077  0.000000
  2.347030  -0.988438  0.000000
  2.095902  -3.080381  0.000000
  2.211872  -2.577866  0.000000
  2.351912  -1.381852  0.000000
  2.246573  0.263621  0.000000
  1.886214  -3.786522  0.000000
  1.821270  -3.975769  0.000000
  2.276133  -2.370968  0.000000
  2.357366  -0.453786  0.000000
  2.024228  -3.479039  0.000000
  2.303905  0.195217  0.000000
  2.347994  -0.093075  0.000000
  2.277962  0.378016  0.000000
  2.397890  -0.636549  0.000000
  2.204152  -2.931504  0.000000
  1.976214  -3.735223  0.000000
  1.911645  -3.912588  0.000000
  2.362402  -2.172704  0.000000
  2.369009  0.097256  0.000000
  2.430401  -1.764877  0.000000
  2.451819  -1.550536  0.000000
  2.353351  0.296035  0.000000
  2.466615  -0.808919  0.000000
  2.049635  -3.652129  0.000000
  2.435872  -1.972250  0.000000
  1.999503  -3.845923  0.000000
  2.458957  -0.307017  0.000000
  2.502046  -1.179701  0.000000
  2.330105  -2.755008  0.000000
  2.205198  -3.312466  0.000000
  2.127298  -3.580243  0.000000
  2.425525  0.211225  0.000000
  2.454028  0.020198  0.000000
  2.084706  -3.775877  0.000000
  2.421569  -2.526128  0.000000
  2.531376  -0.470246  0.000000
  2.554644  -0.973232  0.000000
  2.498997  -0.060657  0.000000
  2.202138  -3.505372  0.000000
  2.494366  0.123742  0.000000
  2.485882  -2.353271  0.000000
  2.334414  -3.108279  0.000000
  2.167128  -3.702536  0.000000
  2.552351  -0.165353  0.000000
  2.598765  -1.441945  0.000000
  2.586560  -1.903472  0.000000
  2.616188  -0.627663  0.000000
  2.559828  -2.149023  0.000000
  2.289482  -3.428220  0.000000
  2.559799  0.033723  0.000000
  2.619777  -1.688462  0.000000
  2.246643  -3.626054  0.000000
  2.616611  -0.245515  0.000000
  2.449069  -2.935309  0.000000
  2.348760  -3.362612  0.000000
  2.621692  -0.058740  0.000000
  2.657168  -0.351291  0.000000
  2.323130  -3.546496  0.000000
  2.408411  -3.263981  0.000000
  2.711150  -0.828560  0.000000
  2.550911  -2.740768  0.000000
  2.704100  -0.447109  0.000000
  2.679989  -0.153497  0.000000
  2.396465  -3.464006  0.000000
  2.746456  -1.060484  0.000000
  2.480470  -3.190713  0.000000
  2.637875  -2.542377  0.000000
  2.734579  -0.250385  0.000000
  2.529739  -3.090308  0.000000
  2.762930  -0.544229  0.000000
  2.784597  -1.288074  0.000000
  2.466547  -3.378712  0.000000
  2.786701  -0.643743  0.000000
  2.785378  -0.349297  0.000000
  2.596915  -3.010529  0.000000
  2.533270  -3.290738  0.000000
  2.740230  -2.321665  0.000000
  2.637241  -2.907640  0.000000
  2.808968  -1.792349  0.000000
  2.827814  -1.545515  0.000000
  2.844818  -0.744811  0.000000
  2.796799  -2.049490  0.000000
  2.832318  -0.450066  0.000000
  2.685601  -2.813291  0.000000
  2.862567  -0.833243  0.000000
  2.596533  -3.200211  0.000000
  2.719408  -2.707572  0.000000
  2.881552  -0.948921  0.000000
  2.875329  -0.552534  0.000000
  2.656244  -3.107284  0.000000
  2.914878  -1.040709  0.000000
  2.914346  -0.656557  0.000000
  2.784336  -2.619109  0.000000
  2.924849  -1.157456  0.000000
  2.808257  -2.519819  0.000000
  2.712297  -3.012079  0.000000
  2.940438  -1.262777  0.000000
  2.949329  -0.761972  0.000000
  2.951907  -1.368604  0.000000
  2.857539  -2.415713  0.000000
  2.764613  -2.914750  0.000000
  2.879659  -2.329824  0.000000
  2.896002  -2.213855  0.000000
  2.971722  -1.484277  0.000000
  2.980197  -0.868630  0.000000
  2.961722  -1.687415  0.000000
  2.947676  -1.899534  0.000000
  2.813121  -2.815441  0.000000
  2.930804  -2.102303  0.000000
  2.983370  -1.575911  0.000000
  2.947595  -2.015206  0.000000
  2.972347  -1.796916  0.000000
  3.006929  -0.976389  0.000000
  2.857741  -2.714297  0.000000
  3.029458  -1.085060  0.000000
  2.898418  -2.611469  0.000000
  3.047773  -1.194507  0.000000
  2.935075  -2.507118  0.000000
  3.061850  -1.304540  0.000000
  2.967657  -2.401414  0.000000
  3.071650  -1.415004  0.000000
  2.996120  -2.294476  0.000000
  3.077179  -1.525741  0.000000
  3.020423  -2.186499  0.000000
  3.078416  -1.636577  0.000000
  3.040517  -2.077642  0.000000
  3.075357  -1.747357  0.000000
  3.056387  -1.968046  0.000000
  3.068003  -1.857905  0.000000

CELLS  2014  8056
  3  308  316  325
  3  810  823  808
  3  1088  1090  1069
  3  913  902  896
  3  534  550  543
  3  1000  1009  990
  3  1055  1049  1036
  3  412  427  422
  3  918  929  910
  3  1087  1085  1065
  3  674  690  678
  3  1056  1062  1041
  3  998  988  977
  3  354  371  370
  3  865  881  862
  3  1095  1093  1078
  3  605  623  612
  3  1030  1038  1021
  3  1029  1022  1010
  3  468  484  476
  3  963  973  953
  3  1079  1071  1054
  3  747  762  744
  3  1080  1082  1059
  3  960  948  941
  3  331  342  346
  3  839  853  831
  3  1092  1094  1077
  3  890  876  871
  3  569  586  576
  3  1018  1024  1005
  3  1040  1034  1023
  3  439  453  448
  3  944  952  933
  3  1083  1081  1060
  3  710  728  711
  3  1067  1074  1050
  3  979  966  961
  3  383  398  396
  3  893  905  889
  3  1091  1089  1076
  3  641  658  645
  3  1042  1052  1032
  3  1016  1006  999
  3  500  515  509
  3  983  992  972
  3  1064  1058  1047
  3  776  793  774
  3  1084  1086  1066
  3  939  926  917
  3  316  331  332
  3  823  839  820
  3  1090  1092  1075
  3  902  890  885
  3  550  569  558
  3  1009  1018  997
  3  1049  1040  1028
  3  427  439  435
  3  929  944  922
  3  1085  1083  1063
  3  690  710  694
  3  1062  1067  1044
  3  988  979  971
  3  371  383  381
  3  881  893  874
  3  1093  1091  1072
  3  623  641  630
  3  1038  1042  1025
  3  1022  1016  1004
  3  484  500  494
  3  973  983  965
  3  1071  1064  1051
  3  762  776  763
  3  1082  1084  1061
  3  948  939  930
  3  342  354  355
  3  853  865  850
  3  1094  1095  1073
  3  876  864  857
  3  586  605  593
  3  1024  1030  1015
  3  1034  1029  1019
  3  453  468  464
  3  952  963  945
  3  1081  1079  1057
  3  728  747  730
  3  1074  1080  1053
  3  966  960  951
  3  398  412  409
  3  905  918  898
  3  1089  1087  1070
  3  658  674  662
  3  1052  1056  1035
  3  1006  998  985
  3  515  534  528
  3  992  1000  982
  3  1058  1055  1039
  3  793  810  789
  3  1086  1088  1068
  3  926  913  908
  3  864  849  844
  3  849  832  830
  3  296  308  291
  3  832  819  814
  3  819  802  800
  3  802  784  782
  3  784  769  771
  3  769  751  749
  3  751  736  739
  3  736  717  718
  3  717  699  703
  3  699  680  682
  3  680  663  665
  3  663  643  647
  3  643  627  631
  3  627  603  611
  3  547  530  538
  3  475  461  470
  3  415  400  408
  3  583  565  572
  3  511  496  502
  3  445  429  440
  3  603  583  590
  3  530  511  520
  3  461  445  454
  3  400  385  397
  3  565  547  556
  3  496  475  483
  3  429  415  425
  3  325  316  332
  3  325  332  339
  3  448  453  464
  3  448  464  458
  3  874  893  889
  3  874  889  868
  3  1039  1055  1036
  3  1039  1036  1013
  3  612  623  630
  3  612  630  616
  3  1066  1086  1068
  3  1066  1068  1043
  3  1015  1030  1021
  3  1015  1021  996
  3  910  929  922
  3  910  922  901
  3  1076  1089  1070
  3  1076  1070  1046
  3  763  776  774
  3  763  774  758
  3  941  948  930
  3  941  930  909
  3  1028  1040  1023
  3  1028  1023  1002
  3  409  412  422
  3  409  422  421
  3  543  550  558
  3  543  558  551
  3  1050  1074  1053
  3  1050  1053  1027
  3  1004  1016  999
  3  1004  999  978
  3  953  973  965
  3  953  965  942
  3  1075  1092  1077
  3  1075  1077  1048
  3  1057  1079  1054
  3  1057  1054  1031
  3  977  988  971
  3  977  971  958
  3  509  515  528
  3  509  528  522
  3  850  865  862
  3  850  862  840
  3  871  876  857
  3  871  857  845
  3  694  710  711
  3  694  711  686
  3  1035  1056  1041
  3  1035  1041  1020
  3  1069  1090  1075
  3  1069  1075  1048
  3  1060  1081  1057
  3  1060  1057  1031
  3  630  641  645
  3  630  645  616
  3  1068  1088  1069
  3  1068  1069  1043
  3  1010  1022  1004
  3  1010  1004  978
  3  332  331  346
  3  332  346  339
  3  464  468  476
  3  464  476  458
  3  678  690  694
  3  678  694  686
  3  1032  1052  1035
  3  1032  1035  1008
  3  930  939  917
  3  930  917  909
  3  831  853  850
  3  831  850  840
  3  922  944  933
  3  922  933  901
  3  1070  1087  1065
  3  1070  1065  1046
  3  1036  1049  1028
  3  1036  1028  1013
  3  396  398  409
  3  396  409  421
  3  965  983  972
  3  965  972  942
  3  744  762  763
  3  744  763  758
  3  558  569  576
  3  558  576  551
  3  1053  1080  1059
  3  1053  1033  1027
  3  862  881  874
  3  862  874  840
  3  1047  1058  1039
  3  1047  1039  1026
  3  857  864  844
  3  857  844  845
  3  1005  1024  1015
  3  1005  1015  996
  3  971  979  961
  3  971  961  958
  3  528  534  543
  3  528  543  522
  3  808  823  820
  3  808  820  798
  3  933  952  945
  3  933  945  919
  3  1072  1091  1076
  3  1072  1076  1046
  3  789  810  808
  3  789  808  798
  3  1021  1038  1025
  3  1021  1025  996
  3  917  926  908
  3  917  908  891
  3  1019  1029  1010
  3  1019  1010  993
  3  1065  1085  1063
  3  1065  1063  1037
  3  645  658  662
  3  645  662  651
  3  1061  1084  1066
  3  1061  1066  1043
  3  346  342  355
  3  346  355  360
  3  435  439  448
  3  435  448  458
  3  898  918  910
  3  898  910  901
  3  990  1009  997
  3  990  997  976
  3  961  966  951
  3  961  951  934
  3  494  500  509
  3  494  509  490
  3  1054  1071  1051
  3  1054  1026  1031
  3  885  890  871
  3  885  871  869
  3  730  747  744
  3  730  744  721
  3  370  371  381
  3  370  381  386
  3  972  992  982
  3  972  982  959
  3  1073  1095  1078
  3  1073  1078  1045
  3  576  586  593
  3  576  593  581
  3  1044  1067  1050
  3  1044  1050  1027
  3  985  998  977
  3  985  977  958
  3  896  902  885
  3  896  885  869
  3  711  728  730
  3  711  730  721
  3  1025  1042  1032
  3  1025  1032  1008
  3  908  913  896
  3  908  896  891
  3  476  484  494
  3  476  494  490
  3  820  839  831
  3  820  831  798
  3  945  963  953
  3  945  953  919
  3  1041  1062  1044
  3  1041  1044  1020
  3  999  1006  985
  3  999  985  978
  3  355  354  370
  3  355  370  386
  3  1077  1094  1073
  3  1077  1073  1048
  3  1063  1083  1060
  3  1063  1060  1037
  3  662  674  678
  3  662  678  651
  3  422  427  435
  3  422  435  421
  3  889  905  898
  3  889  898  868
  3  1051  1064  1047
  3  1051  1047  1026
  3  1059  1082  1061
  3  1059  1061  1033
  3  997  1018  1005
  3  997  1005  976
  3  951  960  941
  3  951  941  934
  3  1078  1093  1072
  3  1078  1072  1045
  3  774  793  789
  3  774  789  758
  3  593  605  612
  3  593  612  581
  3  1023  1034  1019
  3  1023  1019  993
  3  381  383  396
  3  381  396  386
  3  982  1000  990
  3  982  990  959
  3  308  325  313
  3  844  849  830
  3  844  830  816
  3  830  832  814
  3  830  814  816
  3  287  296  286
  3  814  819  800
  3  814  800  787
  3  291  308  313
  3  296  291  286
  3  286  291  279
  3  800  802  782
  3  800  782  787
  3  782  784  771
  3  782  771  757
  3  771  769  749
  3  771  749  757
  3  749  751  739
  3  749  739  726
  3  739  736  718
  3  739  718  726
  3  718  717  703
  3  718  703  692
  3  703  699  682
  3  703  682  692
  3  682  680  665
  3  682  665  661
  3  665  663  647
  3  665  647  661
  3  647  643  631
  3  647  631  629
  3  631  627  611
  3  631  611  629
  3  611  603  590
  3  611  590  594
  3  572  565  556
  3  572  556  559
  3  520  511  502
  3  520  502  518
  3  483  475  470
  3  483  470  477
  3  470  461  454
  3  470  454  477
  3  440  429  425
  3  440  425  443
  3  397  385  382
  3  291  313  279
  3  538  530  520
  3  538  520  518
  3  502  496  483
  3  502  483  477
  3  454  445  440
  3  454  440  443
  3  425  415  408
  3  425  413  443
  3  408  400  397
  3  408  397  413
  3  590  583  572
  3  590  572  559
  3  556  547  538
  3  556  538  559
  3  385  380  361
  3  270  287  266
  3  287  286  266
  3  266  286  279
  3  313  325  339
  3  382  385  361
  3  397  382  413
  3  361  380  356
  3  253  270  248
  3  270  266  248
  3  248  266  247
  3  1026  1039  1013
  3  1051  1026  1054
  3  1059  1033  1053
  3  1033  1061  1043
  3  961  934  958
  3  993  1010  978
  3  1025  1008  996
  3  490  509  522
  3  1048  1073  1045
  3  346  360  339
  3  933  919  901
  3  917  891  909
  3  581  612  616
  3  1002  1023  993
  3  686  711  721
  3  953  942  919
  3  645  651  616
  3  1008  1035  1020
  3  874  868  840
  3  941  909  934
  3  721  744  758
  3  869  871  845
  3  476  490  458
  3  543  551  522
  3  360  355  386
  3  576  581  551
  3  1028  1002  1013
  3  972  959  942
  3  896  869  891
  3  1065  1037  1046
  3  990  976  959
  3  380  375  356
  3  356  375  373
  3  844  816  845
  3  814  787  816
  3  782  757  787
  3  749  726  757
  3  718  692  726
  3  682  661  692
  3  647  629  661
  3  594  590  559
  3  518  502  477
  3  408  413  425
  3  611  594  629
  3  238  253  229
  3  361  356  335
  3  253  248  229
  3  229  248  228
  3  1026  1013  989
  3  1048  1045  1012
  3  616  651  619
  3  360  386  388
  3  958  934  916
  3  581  616  591
  3  721  758  725
  3  891  869  863
  3  1027  1033  1001
  3  901  919  883
  3  840  868  828
  3  1013  1002  980
  3  996  1008  968
  3  686  721  695
  3  458  490  478
  3  959  976  937
  3  1031  1026  1003
  3  339  360  364
  3  1008  1020  981
  3  551  581  561
  3  993  978  955
  3  1002  993  975
  3  869  845  836
  3  1046  1037  1011
  3  1033  1043  1007
  3  909  891  879
  3  934  909  900
  3  942  959  928
  3  490  522  505
  3  919  942  904
  3  522  551  531
  3  845  816  812
  3  816  787  791
  3  247  266  279
  3  248  247  228
  3  228  247  227
  3  787  757  760
  3  757  726  732
  3  726  692  705
  3  218  238  213
  3  158  172  146
  3  172  185  160
  3  185  200  178
  3  200  218  193
  3  692  661  670
  3  229  228  205
  3  227  247  251
  3  228  227  202
  3  382  361  349
  3  661  629  638
  3  238  229  213
  3  213  229  205
  3  213  205  187
  3  594  559  575
  3  518  477  498
  3  443  413  434
  3  629  594  609
  3  335  356  333
  3  361  335  349
  3  367  344  343
  3  49  34  43
  3  132  158  146
  3  132  146  116
  3  201  186  179
  3  7  13  11
  3  278  260  254
  3  131  109  118
  3  6  2  4
  3  48  67  59
  3  323  299  297
  3  174  157  147
  3  22  14  20
  3  23  35  30
  3  242  221  215
  3  87  66  76
  3  0  1  3
  3  86  108  95
  3  344  323  318
  3  186  174  161
  3  34  22  31
  3  13  23  21
  3  260  242  235
  3  109  87  94
  3  2  0  3
  3  67  86  77
  3  299  278  272
  3  157  131  147
  3  14  6  10
  3  35  48  44
  3  221  201  194
  3  66  49  60
  3  1  7  5
  3  108  132  116
  3  108  116  95
  3  95  116  112
  3  2  3  4
  3  4  3  8
  3  147  131  118
  3  147  118  135
  3  989  1013  980
  3  989  980  957
  3  957  980  946
  3  989  957  967
  3  1001  1033  1007
  3  1001  1007  974
  3  974  1007  984
  3  1001  974  969
  3  1003  1026  989
  3  1003  989  967
  3  1003  967  994
  3  994  967  949
  3  1003  994  1031
  3  1007  1043  1014
  3  916  934  900
  3  916  900  884
  3  884  900  861
  3  916  884  906
  3  968  1008  981
  3  968  981  947
  3  947  981  964
  3  968  947  938
  3  955  978  943
  3  505  522  531
  3  505  531  521
  3  521  531  560
  3  505  521  487
  3  619  651  654
  3  828  868  856
  3  981  1020  995
  3  900  909  879
  3  900  879  861
  3  861  879  835
  3  863  879  891
  3  725  758  756
  3  478  490  505
  3  478  505  487
  3  478  487  460
  3  460  487  473
  3  478  460  458
  3  836  845  812
  3  836  812  806
  3  806  812  777
  3  836  806  835
  3  531  551  561
  3  531  561  560
  3  560  561  591
  3  591  561  581
  3  1012  1045  1017
  3  883  919  904
  3  883  904  870
  3  870  904  899
  3  883  870  848
  3  364  360  388
  3  364  388  391
  3  391  388  407
  3  364  391  366
  3  591  616  619
  3  591  619  600
  3  600  619  637
  3  591  600  560
  3  695  721  725
  3  695  725  697
  3  697  725  734
  3  695  697  671
  3  975  993  955
  3  975  955  946
  3  975  946  980
  3  975  980  1002
  3  904  942  928
  3  904  928  899
  3  899  928  937
  3  937  928  959
  3  388  386  410
  3  863  869  836
  3  863  836  835
  3  863  835  879
  3  937  976  956
  3  1011  1037  994
  3  1027  1001  995
  3  958  916  943
  3  996  968  956
  3  840  828  801
  3  1048  1012  1014
  3  901  883  856
  3  339  364  340
  3  686  695  654
  3  1046  1011  1017
  3  812  816  791
  3  812  791  777
  3  777  791  760
  3  760  791  787
  3  112  116  136
  3  95  112  90
  3  760  757  732
  3  760  732  731
  3  731  732  698
  3  760  731  777
  3  187  205  176
  3  213  187  193
  3  193  187  168
  3  213  193  218
  3  168  187  162
  3  193  168  178
  3  178  168  151
  3  193  178  200
  3  151  168  143
  3  178  151  160
  3  160  151  136
  3  136  151  127
  3  178  160  185
  3  160  136  146
  3  127  151  143
  3  127  143  119
  3  146  136  116
  3  136  127  112
  3  112  127  106
  3  160  146  172
  3  119  143  139
  3  127  119  106
  3  106  119  98
  3  98  119  121
  3  106  98  83
  3  112  106  90
  3  90  106  83
  3  90  83  70
  3  70  83  65
  3  90  70  77
  3  77  70  59
  3  59  70  53
  3  77  59  67
  3  90  77  95
  3  95  77  86
  3  53  70  65
  3  53  65  51
  3  59  53  44
  3  44  53  37
  3  59  44  48
  3  732  726  705
  3  732  705  698
  3  698  705  670
  3  670  705  692
  3  37  53  51
  3  37  51  36
  3  44  37  30
  3  30  37  25
  3  44  30  35
  3  25  37  36
  3  30  25  21
  3  21  25  16
  3  30  21  23
  3  16  25  26
  3  21  16  11
  3  11  16  9
  3  21  11  13
  3  9  16  18
  3  11  9  5
  3  5  9  8
  3  8  9  15
  3  5  8  3
  3  11  5  7
  3  15  9  18
  3  15  18  24
  3  8  15  12
  3  5  3  1
  3  24  18  29
  3  15  24  19
  3  25  36  26
  3  26  36  39
  3  202  227  203
  3  949  967  935
  3  251  247  279
  3  473  487  506
  3  135  118  111
  3  994  949  970
  3  228  202  205
  3  205  202  176
  3  4  8  12
  3  4  12  10
  3  10  12  17
  3  4  10  6
  3  17  12  19
  3  19  12  15
  3  17  19  27
  3  27  19  32
  3  17  27  28
  3  10  17  20
  3  20  17  28
  3  10  20  14
  3  460  473  437
  3  227  251  231
  3  147  135  161
  3  161  135  155
  3  147  161  174
  3  155  135  128
  3  161  155  179
  3  179  155  175
  3  161  179  186
  3  175  155  150
  3  179  175  194
  3  194  175  191
  3  179  194  201
  3  191  175  167
  3  194  191  215
  3  215  191  214
  3  194  215  221
  3  214  191  189
  3  215  214  235
  3  235  214  234
  3  215  235  242
  3  234  214  211
  3  235  234  254
  3  254  234  256
  3  235  254  260
  3  256  234  232
  3  254  256  272
  3  272  256  275
  3  254  272  278
  3  275  256  255
  3  272  275  297
  3  297  275  300
  3  272  297  299
  3  300  275  277
  3  297  300  318
  3  318  300  327
  3  297  318  323
  3  327  300  303
  3  318  327  343
  3  343  327  350
  3  318  343  344
  3  350  327  319
  3  343  350  369
  3  369  350  373
  3  670  661  638
  3  670  638  648
  3  648  638  599
  3  670  648  698
  3  806  777  764
  3  119  139  121
  3  121  139  144
  3  144  139  176
  3  121  144  124
  3  835  806  804
  3  139  143  162
  3  139  162  176
  3  162  143  168
  3  176  162  187
  3  870  899  855
  3  51  65  62
  3  364  366  340
  3  340  366  345
  3  345  366  374
  3  340  345  317
  3  98  121  102
  3  1001  969  995
  3  995  969  964
  3  964  969  940
  3  995  964  981
  3  940  969  936
  3  964  925  947
  3  883  848  856
  3  856  848  822
  3  697  734  707
  3  957  946  921
  3  906  884  872
  3  487  521  506
  3  600  637  615
  3  974  984  950
  3  938  947  912
  3  391  407  419
  3  695  671  654
  3  654  671  637
  3  637  668  615
  3  654  637  619
  3  884  861  843
  3  521  560  542
  3  984  1007  1014
  3  984  1014  991
  3  991  1014  1012
  3  991  1012  986
  3  986  1012  1017
  3  991  986  962
  3  986  1017  987
  3  984  991  962
  3  962  986  954
  3  987  1017  1011
  3  987  1011  970
  3  986  987  954
  3  407  388  410
  3  407  410  437
  3  671  697  668
  3  967  957  935
  3  916  906  943
  3  943  906  927
  3  848  870  834
  3  734  725  756
  3  734  756  766
  3  766  756  801
  3  734  766  740
  3  766  801  792
  3  968  938  956
  3  956  938  920
  3  366  391  393
  3  83  98  78
  3  382  349  357
  3  822  848  815
  3  927  906  892
  3  920  938  903
  3  638  629  609
  3  638  609  599
  3  599  609  575
  3  575  609  594
  3  856  822  828
  3  828  822  792
  3  792  822  790
  3  943  927  955
  3  955  927  946
  3  956  920  937
  3  937  920  899
  3  575  559  540
  3  434  413  406
  3  498  477  466
  3  20  28  31
  3  31  28  41
  3  20  31  22
  3  41  28  40
  3  31  41  43
  3  43  41  56
  3  31  43  34
  3  56  41  52
  3  43  56  60
  3  60  56  73
  3  43  60  49
  3  73  56  69
  3  60  73  76
  3  76  73  92
  3  60  76  66
  3  92  73  88
  3  76  92  94
  3  94  92  111
  3  111  92  105
  3  76  94  87
  3  94  111  118
  3  105  92  88
  3  105  88  101
  3  111  105  128
  3  94  118  109
  3  101  88  80
  3  105  101  125
  3  80  88  69
  3  80  69  61
  3  69  88  73
  3  61  69  52
  3  61  52  50
  3  80  61  79
  3  52  69  56
  3  50  52  40
  3  50  40  38
  3  61  50  64
  3  40  52  41
  3  38  40  27
  3  38  27  32
  3  50  38  54
  3  38  32  45
  3  101  80  97
  3  105  125  128
  3  128  125  150
  3  150  125  141
  3  128  150  155
  3  50  54  64
  3  64  54  71
  3  71  54  58
  3  64  71  84
  3  125  101  120
  3  54  38  45
  3  54  45  58
  3  58  45  47
  3  47  45  33
  3  58  47  68
  3  61  64  79
  3  79  64  84
  3  79  84  100
  3  100  84  107
  3  79  100  97
  3  97  100  117
  3  79  97  80
  3  117  100  123
  3  97  117  120
  3  120  117  140
  3  123  100  107
  3  123  107  130
  3  140  117  137
  3  120  140  141
  3  141  140  163
  3  120  141  125
  3  163  140  165
  3  141  163  167
  3  167  163  189
  3  189  163  188
  3  167  189  191
  3  117  123  137
  3  137  123  148
  3  148  123  130
  3  148  130  154
  3  154  130  134
  3  148  154  171
  3  137  148  164
  3  130  107  113
  3  134  130  113
  3  134  113  115
  3  115  113  93
  3  134  115  145
  3  154  134  159
  3  171  154  180
  3  148  171  164
  3  164  171  190
  3  190  171  196
  3  164  190  184
  3  140  137  165
  3  137  164  165
  3  165  164  184
  3  165  184  188
  3  188  184  209
  3  165  188  163
  3  209  184  206
  3  188  209  211
  3  206  184  190
  3  206  190  212
  3  212  190  196
  3  212  196  219
  3  206  212  230
  3  219  196  199
  3  212  219  240
  3  230  212  240
  3  230  240  258
  3  206  230  225
  3  258  240  263
  3  230  258  250
  3  199  196  180
  3  199  180  183
  3  180  196  171
  3  183  180  159
  3  183  159  169
  3  199  183  208
  3  169  159  145
  3  145  159  134
  3  183  169  197
  3  169  145  156
  3  219  199  224
  3  240  219  243
  3  208  183  197
  3  208  197  223
  3  223  197  207
  3  208  223  236
  3  199  208  224
  3  224  208  236
  3  224  236  249
  3  249  236  262
  3  224  249  243
  3  243  249  269
  3  262  236  244
  3  249  262  274
  3  269  249  274
  3  269  274  292
  3  292  274  304
  3  269  292  289
  3  243  269  263
  3  243  263  240
  3  304  274  285
  3  292  304  321
  3  289  292  314
  3  269  289  263
  3  263  289  282
  3  282  289  307
  3  263  282  258
  3  258  282  273
  3  273  282  302
  3  258  273  250
  3  209  206  225
  3  209  225  232
  3  156  145  129
  3  169  156  182
  3  150  141  167
  3  150  167  175
  3  207  197  182
  3  223  207  233
  3  236  223  244
  3  244  223  233
  3  443  434  466
  3  518  498  540
  3  731  698  701
  3  300  277  303
  3  303  277  273
  3  273  277  250
  3  935  957  921
  3  319  327  303
  3  319  303  302
  3  302  303  273
  3  277  275  255
  3  277  255  250
  3  250  255  225
  3  250  225  230
  3  373  350  333
  3  333  356  373
  3  648  599  617
  3  29  18  26
  3  29  26  39
  3  29  39  42
  3  26  18  16
  3  42  39  55
  3  29  42  33
  3  33  42  47
  3  47  42  57
  3  57  42  55
  3  57  55  72
  3  47  57  68
  3  72  55  63
  3  57  72  75
  3  68  57  75
  3  68  75  85
  3  85  75  96
  3  68  85  74
  3  63  55  46
  3  72  63  82
  3  75  72  91
  3  24  29  33
  3  24  33  32
  3  32  33  45
  3  24  32  19
  3  145  115  129
  3  129  115  104
  3  104  115  93
  3  129  104  114
  3  104  93  85
  3  104  85  96
  3  104  96  114
  3  114  96  110
  3  110  96  91
  3  110  91  103
  3  114  110  133
  3  91  96  75
  3  85  93  74
  3  103  91  82
  3  103  82  99
  3  110  103  126
  3  74  93  89
  3  133  110  126
  3  114  133  138
  3  99  82  81
  3  103  99  122
  3  126  103  122
  3  126  122  149
  3  149  122  142
  3  126  149  152
  3  89  93  113
  3  74  89  71
  3  71  89  84
  3  84  89  107
  3  74  71  58
  3  74  58  68
  3  197  169  182
  3  367  343  369
  3  350  319  333
  3  333  319  302
  3  335  333  307
  3  255  256  232
  3  255  232  225
  3  506  521  542
  3  39  36  46
  3  39  46  55
  3  46  36  51
  3  211  214  189
  3  211  189  188
  3  232  234  211
  3  232  211  209
  3  1014  1043  1048
  3  995  1020  1027
  3  956  976  996
  3  654  651  686
  3  1017  1045  1046
  3  374  366  393
  3  374  393  399
  3  399  393  420
  3  374  399  377
  3  340  317  313
  3  943  978  958
  3  756  758  798
  3  801  828  792
  3  345  374  352
  3  856  868  901
  3  410  386  421
  3  65  83  78
  3  65  78  62
  3  62  78  81
  3  81  78  102
  3  62  81  63
  3  62  63  46
  3  734  740  707
  3  707  740  712
  3  712  740  755
  3  707  712  675
  3  307  289  314
  3  307  314  335
  3  282  307  302
  3  339  340  313
  3  740  766  792
  3  152  149  173
  3  840  801  798
  3  317  345  326
  3  149  142  170
  3  129  114  138
  3  129  138  156
  3  156  138  166
  3  166  138  153
  3  156  166  182
  3  182  166  192
  3  153  138  133
  3  153  133  152
  3  153  152  181
  3  152  133  126
  3  181  152  173
  3  153  181  166
  3  192  166  181
  3  182  192  207
  3  142  122  124
  3  142  124  144
  3  81  82  63
  3  420  393  419
  3  374  377  352
  3  352  377  353
  3  353  377  384
  3  352  353  329
  3  707  675  668
  3  99  81  102
  3  99  102  124
  3  124  102  121
  3  399  420  426
  3  712  755  722
  3  122  99  124
  3  377  399  401
  3  755  740  792
  3  28  27  40
  3  675  712  685
  3  437  473  462
  3  790  822  815
  3  790  815  780
  3  780  815  834
  3  834  815  848
  3  790  780  755
  3  352  329  326
  3  384  377  401
  3  384  401  411
  3  411  401  432
  3  384  411  392
  3  353  384  363
  3  970  949  932
  3  962  954  923
  3  128  135  111
  3  792  790  755
  3  949  935  914
  3  460  437  410
  3  473  506  493
  3  113  107  89
  3  994  970  1011
  3  329  353  334
  3  203  227  231
  3  671  668  637
  3  314  292  321
  3  921  946  911
  3  920  903  887
  3  855  899  887
  3  233  207  222
  3  912  947  925
  3  219  224  243
  3  764  777  743
  3  411  432  438
  3  843  861  827
  3  884  843  872
  3  274  262  285
  3  285  262  268
  3  268  262  244
  3  268  244  257
  3  285  268  293
  3  257  244  233
  3  257  233  246
  3  268  257  284
  3  246  233  222
  3  257  246  271
  3  246  222  237
  3  293  268  284
  3  293  284  310
  3  310  284  294
  3  293  310  324
  3  285  293  311
  3  271  246  264
  3  257  271  284
  3  284  271  294
  3  294  271  288
  3  288  271  264
  3  288  264  276
  3  294  288  312
  3  276  264  252
  3  288  276  305
  3  252  264  237
  3  252  237  226
  3  226  237  210
  3  252  226  245
  3  276  252  267
  3  305  276  295
  3  288  305  312
  3  312  305  330
  3  330  305  320
  3  312  330  338
  3  237  222  210
  3  320  305  295
  3  320  295  315
  3  315  295  290
  3  320  315  341
  3  338  330  358
  3  246  237  264
  3  330  320  347
  3  312  338  322
  3  294  312  322
  3  294  322  310
  3  310  322  336
  3  336  322  351
  3  310  336  324
  3  315  290  309
  3  320  341  347
  3  347  341  368
  3  368  341  363
  3  347  368  376
  3  351  322  338
  3  351  338  365
  3  365  338  358
  3  365  358  387
  3  351  365  379
  3  387  358  376
  3  387  376  402
  3  365  387  394
  3  379  365  394
  3  379  394  405
  3  405  394  423
  3  379  405  389
  3  351  379  359
  3  402  376  395
  3  387  402  414
  3  394  387  414
  3  290  295  267
  3  341  315  334
  3  336  351  359
  3  336  359  348
  3  348  359  378
  3  336  348  324
  3  324  348  337
  3  378  359  389
  3  378  389  403
  3  403  389  417
  3  378  403  390
  3  389  359  379
  3  337  348  362
  3  324  337  311
  3  324  311  293
  3  417  389  405
  3  417  405  433
  3  433  405  423
  3  433  423  449
  3  417  433  444
  3  449  423  436
  3  433  449  463
  3  444  433  463
  3  444  463  472
  3  472  463  491
  3  444  472  455
  3  417  444  428
  3  403  417  428
  3  403  428  418
  3  418  428  446
  3  403  418  390
  3  390  418  404
  3  404  418  431
  3  390  404  372
  3  446  428  455
  3  446  455  471
  3  471  455  485
  3  446  471  457
  3  455  428  444
  3  418  446  431
  3  378  390  362
  3  362  390  372
  3  362  372  337
  3  378  362  348
  3  471  485  504
  3  446  457  431
  3  431  457  452
  3  452  457  482
  3  431  434  406
  3  485  455  472
  3  485  472  503
  3  503  472  491
  3  503  491  523
  3  485  503  514
  3  523  491  508
  3  503  523  536
  3  514  503  536
  3  514  536  549
  3  485  514  504
  3  504  514  537
  3  537  514  549
  3  537  549  568
  3  504  537  519
  3  568  549  582
  3  537  568  548
  3  549  536  570
  3  582  549  570
  3  582  570  606
  3  606  570  588
  3  582  606  618
  3  568  582  604
  3  537  548  519
  3  519  548  533
  3  533  548  573
  3  519  533  507
  3  457  471  488
  3  548  568  585
  3  449  436  467
  3  504  519  488
  3  488  519  507
  3  488  507  482
  3  482  516  498
  3  488  482  457
  3  436  423  414
  3  436  414  430
  3  430  414  402
  3  430  402  424
  3  436  430  456
  3  424  402  395
  3  430  424  450
  3  463  449  479
  3  508  491  479
  3  508  479  497
  3  479  491  463
  3  497  479  467
  3  508  497  529
  3  497  467  486
  3  523  508  541
  3  536  523  555
  3  456  430  450
  3  436  456  467
  3  467  456  486
  3  486  456  474
  3  588  570  555
  3  588  555  574
  3  555  570  536
  3  574  555  541
  3  574  541  564
  3  588  574  610
  3  564  541  529
  3  529  541  508
  3  574  564  598
  3  529  497  517
  3  497  486  517
  3  517  486  510
  3  510  486  474
  3  517  510  544
  3  588  610  626
  3  618  606  642
  3  452  482  466
  3  606  588  626
  3  606  626  642
  3  642  626  660
  3  582  618  604
  3  604  618  640
  3  640  618  656
  3  604  640  622
  3  610  574  598
  3  610  598  635
  3  635  598  620
  3  610  635  646
  3  656  618  642
  3  656  642  677
  3  677  642  660
  3  656  677  693
  3  640  656  676
  3  622  640  659
  3  604  622  585
  3  372  404  406
  3  406  404  431
  3  573  548  585
  3  573  585  617
  3  507  533  516
  3  656  693  676
  3  676  693  713
  3  713  693  733
  3  676  713  701
  3  533  573  552
  3  693  677  715
  3  226  210  204
  3  347  376  358
  3  660  626  646
  3  660  646  681
  3  646  626  610
  3  681  646  664
  3  660  681  696
  3  664  646  635
  3  664  635  652
  3  652  635  620
  3  652  620  644
  3  664  652  688
  3  644  620  608
  3  652  644  679
  3  688  652  679
  3  688  679  714
  3  664  688  700
  3  714  679  706
  3  688  714  724
  3  608  620  584
  3  644  608  633
  3  679  644  669
  3  681  664  700
  3  681  700  716
  3  716  700  738
  3  681  716  696
  3  696  716  735
  3  738  700  724
  3  738  724  761
  3  761  724  745
  3  738  761  773
  3  735  716  752
  3  696  735  715
  3  715  735  748
  3  748  735  770
  3  715  748  733
  3  733  748  768
  3  715  733  693
  3  768  748  794
  3  733  768  764
  3  724  700  688
  3  716  738  752
  3  761  745  779
  3  738  773  752
  3  752  773  786
  3  786  773  811
  3  752  786  770
  3  770  786  805
  3  752  770  735
  3  805  786  824
  3  770  805  794
  3  794  805  843
  3  745  724  714
  3  745  714  737
  3  737  714  706
  3  737  706  727
  3  745  737  772
  3  727  706  689
  3  737  727  765
  3  772  737  765
  3  772  765  797
  3  797  765  788
  3  772  797  807
  3  745  772  779
  3  779  772  807
  3  779  807  813
  3  813  807  841
  3  779  795  761
  3  773  761  795
  3  841  807  833
  3  813  841  837
  3  660  696  677
  3  677  696  715
  3  786  811  824
  3  824  811  851
  3  727  689  719
  3  811  773  795
  3  811  795  837
  3  689  706  669
  3  689  669  655
  3  669  706  679
  3  655  669  633
  3  689  655  684
  3  655  633  624
  3  765  727  753
  3  805  824  842
  3  684  655  650
  3  689  684  719
  3  719  684  709
  3  709  684  673
  3  719  709  754
  3  748  770  794
  3  768  794  804
  3  824  851  860
  3  709  673  704
  3  252  245  267
  3  267  245  265
  3  265  245  241
  3  267  265  290
  3  241  245  220
  3  265  241  261
  3  423  394  414
  3  620  598  584
  3  584  598  564
  3  584  564  553
  3  553  564  529
  3  584  553  579
  3  579  553  544
  3  544  553  517
  3  584  579  608
  3  608  579  601
  3  601  579  566
  3  608  601  633
  3  633  601  624
  3  566  579  544
  3  601  566  592
  3  624  601  592
  3  624  592  613
  3  566  544  535
  3  613  592  578
  3  624  613  650
  3  624  650  655
  3  535  544  510
  3  566  535  563
  3  578  592  563
  3  563  592  566
  3  578  563  546
  3  546  563  526
  3  578  546  571
  3  571  546  539
  3  578  571  607
  3  613  578  607
  3  613  607  639
  3  639  607  634
  3  613  639  650
  3  719  754  753
  3  245  226  220
  3  220  226  204
  3  220  204  198
  3  198  204  181
  3  220  198  216
  3  851  811  837
  3  673  684  650
  3  673  650  639
  3  754  709  742
  3  376  368  395
  3  395  368  392
  3  474  456  450
  3  474  450  469
  3  469  450  441
  3  474  469  499
  3  441  450  424
  3  441  424  416
  3  416  424  395
  3  441  416  438
  3  416  395  392
  3  416  392  411
  3  469  441  465
  3  499  469  495
  3  474  499  510
  3  510  499  535
  3  713  733  764
  3  220  216  241
  3  241  216  239
  3  239  216  217
  3  241  239  261
  3  261  239  259
  3  259  239  231
  3  261  259  281
  3  231  239  217
  3  231  217  203
  3  203  217  195
  3  195  216  198
  3  203  195  177
  3  217  216  195
  3  281  259  280
  3  261  281  283
  3  841  833  867
  3  539  546  513
  3  276  267  295
  3  795  779  813
  3  795  813  837
  3  285  311  304
  3  304  311  328
  3  328  311  337
  3  328  337  372
  3  304  328  321
  3  321  328  357
  3  568  604  585
  3  479  449  467
  3  571  539  562
  3  471  504  488
  3  203  177  202
  3  384  392  363
  3  363  392  368
  3  523  541  555
  3  644  633  669
  3  231  251  259
  3  788  765  753
  3  788  753  781
  3  781  753  754
  3  788  781  818
  3  101  97  120
  3  807  797  833
  3  382  357  406
  3  91  72  82
  3  419  407  437
  3  804  806  764
  3  177  195  170
  3  170  195  198
  3  950  984  962
  3  154  159  180
  3  927  892  911
  3  432  401  426
  3  432  426  451
  3  834  870  855
  3  837  841  875
  3  357  349  321
  3  938  912  903
  3  903  912  878
  3  878  912  897
  3  903  878  866
  3  897  912  925
  3  897  925  907
  3  907  925  940
  3  940  925  964
  3  907  940  936
  3  897  907  873
  3  936  969  974
  3  907  936  895
  3  878  897  859
  3  866  878  847
  3  903  866  887
  3  887  866  855
  3  873  907  895
  3  897  873  859
  3  859  873  838
  3  838  873  854
  3  859  838  825
  3  895  936  915
  3  854  873  895
  3  838  854  821
  3  825  838  803
  3  859  825  847
  3  847  825  809
  3  809  825  785
  3  847  809  829
  3  878  859  847
  3  895  915  880
  3  825  803  785
  3  785  803  767
  3  767  803  783
  3  785  767  750
  3  783  803  821
  3  783  821  799
  3  767  783  742
  3  785  750  775
  3  783  799  754
  3  750  767  729
  3  799  821  846
  3  847  829  866
  3  838  821  803
  3  809  785  775
  3  809  775  796
  3  796  775  759
  3  809  796  829
  3  829  796  817
  3  817  796  778
  3  829  817  855
  3  759  775  741
  3  796  759  778
  3  778  759  746
  3  746  759  723
  3  778  746  780
  3  817  778  780
  3  821  854  846
  3  915  936  950
  3  393  391  419
  3  600  615  580
  3  98  102  78
  3  542  560  580
  3  892  906  872
  3  892  872  860
  3  892  888  911
  3  797  788  826
  3  51  62  46
  3  607  571  595
  3  835  804  827
  3  827  804  794
  3  835  827  861
  3  974  950  936
  3  697  707  668
  3  540  559  518
  3  170  142  177
  3  469  465  495
  3  729  767  742
  3  617  599  573
  3  659  640  676
  3  265  261  283
  3  265  283  290
  3  290  283  309
  3  466  477  443
  3  533  552  516
  3  634  607  595
  3  634  595  625
  3  625  595  589
  3  634  625  657
  3  759  741  723
  3  723  741  702
  3  702  741  720
  3  723  702  687
  3  173  149  170
  3  753  727  719
  3  406  413  382
  3  842  824  860
  3  326  345  352
  3  552  573  599
  3  499  495  526
  3  701  698  666
  3  315  309  334
  3  281  280  301
  3  746  723  708
  3  358  330  347
  3  465  441  438
  3  775  750  741
  3  741  750  720
  3  720  750  729
  3  720  729  691
  3  691  729  704
  3  720  691  683
  3  691  704  667
  3  683  691  657
  3  683  657  653
  3  653  657  625
  3  683  653  702
  3  683  702  720
  3  667  704  673
  3  667  673  639
  3  667  639  634
  3  691  667  657
  3  575  540  552
  3  552  540  516
  3  575  552  599
  3  818  781  799
  3  799  781  754
  3  648  617  666
  3  622  659  617
  3  622  617  585
  3  498  466  482
  3  529  517  553
  3  788  818  826
  3  826  818  852
  3  852  818  846
  3  826  852  858
  3  434  431  452
  3  434  452  466
  3  805  842  843
  3  799  846  818
  3  507  516  482
  3  498  516  540
  3  283  281  306
  3  731  701  743
  3  731  743  777
  3  280  259  251
  3  317  326  301
  3  301  326  306
  3  317  301  280
  3  306  326  329
  3  306  329  309
  3  306  309  283
  3  309  329  334
  3  204  210  181
  3  426  420  447
  3  411  438  416
  3  281  301  306
  3  949  914  932
  3  837  875  882
  3  462  473  493
  3  920  887  899
  3  754  742  783
  3  401  399  426
  3  595  571  562
  3  526  495  513
  3  513  495  489
  3  526  513  546
  3  526  563  535
  3  489  495  465
  3  513  489  539
  3  526  535  499
  3  426  447  451
  3  970  932  954
  3  562  539  524
  3  524  539  489
  3  562  524  554
  3  580  615  597
  3  722  755  780
  3  843  827  794
  3  746  708  722
  3  722  708  685
  3  353  363  334
  3  867  833  858
  3  687  702  653
  3  685  712  722
  3  921  911  888
  3  709  704  742
  3  858  852  886
  3  886  852  877
  3  858  886  894
  3  962  923  931
  3  931  923  877
  3  962  931  950
  3  764  743  713
  3  432  451  459
  3  459  451  481
  3  432  459  438
  3  438  459  465
  3  701  666  659
  3  659  666  617
  3  600  580  560
  3  708  723  687
  3  708  687  672
  3  672  687  649
  3  708  672  685
  3  649  687  653
  3  649  653  621
  3  621  653  625
  3  621  625  589
  3  649  621  614
  3  672  649  636
  3  614  621  587
  3  649  614  636
  3  636  614  602
  3  602  614  577
  3  636  602  632
  3  577  614  587
  3  577  587  554
  3  602  577  567
  3  632  602  596
  3  636  632  685
  3  567  577  545
  3  602  567  596
  3  632  596  628
  3  587  621  589
  3  587  589  554
  3  567  545  532
  3  632  628  675
  3  532  545  512
  3  567  532  557
  3  545  577  554
  3  628  596  597
  3  597  596  557
  3  628  597  615
  3  493  506  527
  3  527  506  542
  3  493  527  501
  3  589  595  562
  3  222  207  192
  3  841  867  875
  3  437  462  419
  3  911  946  927
  3  826  858  833
  3  923  954  924
  3  924  954  932
  3  924  932  894
  3  924  894  886
  3  923  924  886
  3  666  698  648
  3  447  420  442
  3  860  851  888
  3  797  826  833
  3  880  915  877
  3  880  877  846
  3  675  685  632
  3  895  880  854
  3  634  657  667
  3  914  935  882
  3  210  222  192
  3  210  192  181
  3  921  888  882
  3  882  888  851
  3  672  636  685
  3  562  554  589
  3  858  894  867
  3  837  882  851
  3  886  877  923
  3  557  532  527
  3  580  597  557
  3  459  481  489
  3  882  875  914
  3  877  852  846
  3  532  512  501
  3  501  512  480
  3  532  501  527
  3  493  501  462
  3  480  512  492
  3  501  480  462
  3  492  512  525
  3  480  492  447
  3  525  512  545
  3  492  525  481
  3  492  481  451
  3  525  545  554
  3  442  420  419
  3  442  419  462
  3  442  462  480
  3  554  524  525
  3  567  557  596
  3  447  442  480
  3  888  892  860
  3  302  307  333
  3  842  860  872
  3  842  872  843
  3  915  950  931
  3  915  931  877
  3  341  334  363
  3  875  867  914
  3  932  914  894
  3  668  675  628
  3  742  704  729
  3  1069  1048  1043
  3  1072  1046  1045
  3  978  985  958
  3  176  202  177
  3  435  458  421
  3  651  678  686
  3  758  789  798
  3  831  840  798
  3  396  421  386
  3  868  898  901
  3  1060  1031  1037
  3  1044  1027  1020
  3  1005  996  976
  3  451  447  492
  3  987  970  954
  3  173  170  198
  3  173  198  181
  3  557  527  542
  3  659  676  701
  3  846  854  880
  3  867  894  914
  3  866  829  855
  3  628  615  668
  3  935  921  882
  3  410  421  460
  3  460  421  458
  3  798  801  756
  3  834  855  817
  3  768  804  764
  3  279  313  298
  3  298  313  317
  3  298  317  280
  3  298  280  279
  3  314  321  349
  3  477  454  443
  3  559  538  518
  3  142  144  177
  3  489  465  459
  3  349  335  314
  3  542  580  557
  3  834  817  780
  3  251  279  280
  3  743  701  713
  3  746  722  780
  3  176  177  144
  3  525  524  481
  3  372  406  357
  3  372  357  328
  3  1037  1031  994
  3  489  481  524

CELL_TYPES 2014
5
5
5
5
5
5
5
5
5
5
5
5
5
5
5
5
5
5
5
5
5
5
5
5
5
5
5
5
5
5
5
5
5
5
5
5
5
5
5
5
5
5
5
5
5
5
5
5
5
5
5
5
5
5
5
5
5
5
5
5
5
5
5
5
5
5
5
5
5
5
5
5
5
5
5
5
5
5
5
5
5
5
5
5
5
5
5
5
5
5
5
5
5
5
5
5
5
5
5
5
5
5
5
5
5
5
5
5
5
5
5
5
5
5
5
5
5
5
5
5
5
5
5
5
5
5
5
5
5
5
5
5
5
5
5
5
5
5
5
5
5
5
5
5
5
5
5
5
5
5
5
5
5
5
5
5
5
5
5
5
5
5
5
5
5
5
5
5
5
5
5
5
5
5
5
5
5
5
5
5
5
5
5
5
5
5
5
5
5
5
5
5
5
5
5
5
5
5
5
5
5
5
5
5
5
5
5
5
5
5
5
5
5
5
5
5
5
5
5
5
5
5
5
5
5
5
5
5
5
5
5
5
5
5
5
5
5
5
5
5
5
5
5
5
5
5
5
5
5
5
5
5
5
5
5
5
5
5
5
5
5
5
5
5
5
5
5
5
5
5
5
5
5
5
5
5
5
5
5
5
5
5
5
5
5
5
5
5
5
5
5
5
5
5
5
5
5
5
5
5
5
5
5
5
5
5
5
5
5
5
5
5
5
5
5
5
5
5
5
5
5
5
5
5
5
5
5
5
5
5
5
5
5
5
5
5
5
5
5
5
5
5
5
5
5
5
5
5
5
5
5
5
5
5
5
5
5
5
5
5
5
5
5
5
5
5
5
5
5
5
5
5
5
5
5
5
5
5
5
5
5
5
5
5
5
5
5
5
5
5
5
5
5
5
5
5
5
5
5
5
5
5
5
5
5
5
5
5
5
5
5
5
5
5
5
5
5
5
5
5
5
5
5
5
5
5
5
5
5
5
5
5
5
5
5
5
5
5
5
5
5
5
5
5
5
5
5
5
5
5
5
5
5
5
5
5
5
5
5
5
5
5
5
5
5
5
5
5
5
5
5
5
5
5
5
5
5
5
5
5
5
5
5
5
5
5
5
5
5
5
5
5
5
5
5
5
5
5
5
5
5
5
5
5
5
5
5
5
5
5
5
5
5
5
5
5
5
5
5
5
5
5
5
5
5
5
5
5
5
5
5
5
5
5
5
5
5
5
5
5
5
5
5
5
5
5
5
5
5
5
5
5
5
5
5
5
5
5
5
5
5
5
5
5
5
5
5
5
5
5
5
5
5
5
5
5
5
5
5
5
5
5
5
5
5
5
5
5
5
5
5
5
5
5
5
5
5
5
5
5
5
5
5
5
5
5
5
5
5
5
5
5
5
5
5
5
5
5
5
5
5
5
5
5
5
5
5
5
5
5
5
5
5
5
5
5
5
5
5
5
5
5
5
5
5
5
5
5
5
5
5
5
5
5
5
5
5
5
5
5
5
5
5
5
5
5
5
5
5
5
5
5
5
5
5
5
5
5
5
5
5
5
5
5
5
5
5
5
5
5
5
5
5
5
5
5
5
5
5
5
5
5
5
5
5
5
5
5
5
5
5
5
5
5
5
5
5
5
5
5
5
5
5
5
5
5
5
5
5
5
5
5
5
5
5
5
5
5
5
5
5
5
5
5
5
5
5
5
5
5
5
5
5
5
5
5
5
5
5
5
5
5
5
5
5
5
5
5
5
5
5
5
5
5
5
5
5
5
5
5
5
5
5
5
5
5
5
5
5
5
5
5
5
5
5
5
5
5
5
5
5
5
5
5
5
5
5
5
5
5
5
5
5
5
5
5
5
5
5
5
5
5
5
5
5
5
5
5
5
5
5
5
5
5
5
5
5
5
5
5
5
5
5
5
5
5
5
5
5
5
5
5
5
5
5
5
5
5
5
5
5
5
5
5
5
5
5
5
5
5
5
5
5
5
5
5
5
5
5
5
5
5
5
5
5
5
5
5
5
5
5
5
5
5
5
5
5
5
5
5
5
5
5
5
5
5
5
5
5
5
5
5
5
5
5
5
5
5
5
5
5
5
5
5
5
5
5
5
5
5
5
5
5
5
5
5
5
5
5
5
5
5
5
5
5
5
5
5
5
5
5
5
5
5
5
5
5
5
5
5
5
5
5
5
5
5
5
5
5
5
5
5
5
5
5
5
5
5
5
5
5
5
5
5
5
5
5
5
5
5
5
5
5
5
5
5
5
5
5
5
5
5
5
5
5
5
5
5
5
5
5
5
5
5
5
5
5
5
5
5
5
5
5
5
5
5
5
5
5
5
5
5
5
5
5
5
5
5
5
5
5
5
5
5
5
5
5
5
5
5
5
5
5
5
5
5
5
5
5
5
5
5
5
5
5
5
5
5
5
5
5
5
5
5
5
5
5
5
5
5
5
5
5
5
5
5
5
5
5
5
5
5
5
5
5
5
5
5
5
5
5
5
5
5
5
5
5
5
5
5
5
5
5
5
5
5
5
5
5
5
5
5
5
5
5
5
5
5
5
5
5
5
5
5
5
5
5
5
5
5
5
5
5
5
5
5
5
5
5
5
5
5
5
5
5
5
5
5
5
5
5
5
5
5
5
5
5
5
5
5
5
5
5
5
5
5
5
5
5
5
5
5
5
5
5
5
5
5
5
5
5
5
5
5
5
5
5
5
5
5
5
5
5
5
5
5
5
5
5
5
5
5
5
5
5
5
5
5
5
5
5
5
5
5
5
5
5
5
5
5
5
5
5
5
5
5
5
5
5
5
5
5
5
5
5
5
5
5
5
5
5
5
5
5
5
5
5
5
5
5
5
5
5
5
5
5
5
5
5
5
5
5
5
5
5
5
5
5
5
5
5
5
5
5
5
5
5
5
5
5
5
5
5
5
5
5
5
5
5
5
5
5
5
5
5
5
5
5
5
5
5
5
5
5
5
5
5
5
5
5
5
5
5
5
5
5
5
5
5
5
5
5
5
5
5
5
5
5
5
5
5
5
5
5
5
5
5
5
5
5
5
5
5
5
5
5
5
5
5
5
5
5
5
5
5
5
5
5
5
5
5
5
5
5
5
5
5
5
5
5
5
5
5
5
5
5
5
5
5
5
5
5
5
5
5
5
5
5
5
5
5
5
5
5
5
5
5
5
5
5
5
5
5
5
5
5
5
5
5
5
5
5
5
5
5
5
5
5
5
5
5
5
5
5
5
5
5
5
5
5
5
5
5
5
5
5
5
5
5
5
5
5
5
5
5
5
5
5
5
5
5
5
5
5
5
5
5
5
5
5
5
5
5
5
5
5
5
5
5
5
5
5
5
5
5
5
5
5
5
5
5
5
5
5
5
5
5
5
5
5
5
5
5
5
5
5
5
5
5
5
5
5
5
5
5
5
5
5
5
5
5
5
5
5
5
5
5
5
5
5
5
5
5
5
5
5
5
5
5
5
5
5
5
5
5
5
5
5
5
5
5
5
5
5
5
5
5
5
5
5
5
5
5
5
5
5
5
5
5
5
5
5
5
5
5
5
5
5
5
5
5
5
5
5
5
5
5
5
5
5
5
5
5
5
5
5
5
5
5
5
5
5
5
5
5
5
5
5
5
5
5
5
5
5
5
5
5
5
5
5
5
5
5
5
5
5
5
5
5
5
5
5
5
5
5
5
5
5
5
5
5
5
5
5
5
5
5
5
5
5
5
5
5
5
5
5
5
5
5
5
5
5
5
5
5
5
5
5
5
5
5
5
5
5
5
5
5
5
5
5
5
5
5
5
5
5
5
5
5
5
5
5
5
5
5
5
5
5
5
5
5
5
5
5
5
5
5
5
5
5
5
5
5
5
5
5
5
5
5
5
5
5
5
5
5
5
5
5
5
5
5
5
5
5
5
5
5
5
5
5
5
5
5
5
5
5
5
5
5
5
5
5
5
5
5
5
5
5
5
5
5
5
5
5
5
5
5
5
5
5
5
5
5
5
5
5
5
5
5
5
5
5
5
5
5
5
5
5
5
5
5
5
5
5
5
5
5
5
5
5
5
5
5
5
5
5
5
5
5
5
5
5
5
5
5
5
5
5
5
5
5
5
5
5
5
5
5
5
5
5
5
5
5
5
5
5
5
5
5
5
5
5
5
5
5
5
5
5
5
5
5
5
5
5
5
5
5
5
5
5
5
5
5
5
5
5
5
5
5
5
5
5
5
5
5
5
5
5
5
5
5
5
5
5
5
5
5
5
5
5
5
5
5
5
5
5
5
5
5
5
5
5
5
5
5
5
5
5
5
5
5
5
5
5
5
5
5
5
5
5
5
5
5
5
5
5
5
5
5
5
5
5
5
5
5
5
5
5
5
5
5
5
5
5
5
5
5
5
5
5
5
5
5
5
5
5
5
5
5
5
5
5
5
5
5
5
5
5
5
5
5
5
5
5
5
5
5
5
5
5
5
5
5
5
5
5
5
5
5
5
5
5
5
5
5
5
5
5
5
5
5
5
5
5
5
5
5
5
5
5
5
5
5
5

CELL_DATA 2014
TENSORS strain double
  -0.161716  0.039046  0.000000
  0.039046  0.034296  0.000000
  0.000000  0.000000  0.000000

  -0.006748  -0.004334  0.000000
  -0.004334  0.005986  0.000000
  0.000000  0.000000  0.000000

  0.001580  -0.006405  0.000000
  -0.006405  -0.002169  0.000000
  0.000000  0.000000  0.000000

  0.005035  -0.000579  0.000000
  -0.000579  -0.006182  0.000000
  0.000000  0.000000  0.000000

  -0.010452  0.000934  0.000000
  0.000934  0.008044  0.000000
  0.000000  0.000000  0.000000

  -0.002623  -0.006646  0.000000
  -0.006646  0.002025  0.000000
  0.000000  0.000000  0.000000

  0.004491  -0.004026  0.000000
  -0.004026  -0.005267  0.000000
  0.000000  0.000000  0.000000

  -0.013886  0.006593  0.000000
  0.006593  0.008682  0.000000
  0.000000  0.000000  0.000000

  -0.004753  -0.005873  0.000000
  -0.005873  0.004136  0.000000
  0.000000  0.000000  0.000000

  0.003318  -0.005362  0.000000
  -0.005362  -0.003931  0.000000
  0.000000  0.000000  0.000000

  -0.008468  -0.002122  0.000000
  -0.002122  0.007203  0.000000
  0.000000  0.000000  0.000000

  -0.000466  -0.006847  0.000000
  -0.006847  -0.000080  0.000000
  0.000000  0.000000  0.000000

  0.005123  -0.002280  0.000000
  -0.002280  -0.006028  0.000000
  0.000000  0.000000  0.000000

  -0.020064  0.012102  0.000000
  0.012102  0.007583  0.000000
  0.000000  0.000000  0.000000

  -0.005774  -0.005159  0.000000
  -0.005159  0.005028  0.000000
  0.000000  0.000000  0.000000

  0.002435  -0.005963  0.000000
  -0.005963  -0.003070  0.000000
  0.000000  0.000000  0.000000

  -0.009391  -0.000736  0.000000
  -0.000736  0.007686  0.000000
  0.000000  0.000000  0.000000

  -0.001593  -0.006795  0.000000
  -0.006795  0.001004  0.000000
  0.000000  0.000000  0.000000

  0.004957  -0.003136  0.000000
  -0.003136  -0.005727  0.000000
  0.000000  0.000000  0.000000

  -0.011554  0.003109  0.000000
  0.003109  0.008079  0.000000
  0.000000  0.000000  0.000000

  -0.003723  -0.006310  0.000000
  -0.006310  0.003095  0.000000
  0.000000  0.000000  0.000000

  0.003976  -0.004757  0.000000
  -0.004757  -0.004640  0.000000
  0.000000  0.000000  0.000000

  -0.007676  -0.003293  0.000000
  -0.003293  0.006627  0.000000
  0.000000  0.000000  0.000000

  0.000635  -0.006699  0.000000
  -0.006699  -0.001173  0.000000
  0.000000  0.000000  0.000000

  0.005185  -0.001377  0.000000
  -0.001377  -0.006159  0.000000
  0.000000  0.000000  0.000000

  -0.037360  0.022631  0.000000
  0.022631  0.009643  0.000000
  0.000000  0.000000  0.000000

  -0.006306  -0.004721  0.000000
  -0.004721  0.005468  0.000000
  0.000000  0.000000  0.000000

  0.001958  -0.006233  0.000000
  -0.006233  -0.002606  0.000000
  0.000000  0.000000  0.000000

  0.004999  -0.000434  0.000000
  -0.000434  -0.006001  0.000000
  0.000000  0.000000  0.000000

  -0.009895  0.000035  0.000000
  0.000035  0.007876  0.000000
  0.000000  0.000000  0.000000

  -0.002111  -0.006736  0.000000
  -0.006736  0.001530  0.000000
  0.000000  0.000000  0.000000

  0.004742  -0.003595  0.000000
  -0.003595  -0.005490  0.000000
  0.000000  0.000000  0.000000

  -0.012371  0.004663  0.000000
  0.004663  0.008074  0.000000
  0.000000  0.000000  0.000000

  -0.004255  -0.006084  0.000000
  -0.006084  0.003613  0.000000
  0.000000  0.000000  0.000000

  0.003645  -0.005062  0.000000
  -0.005062  -0.004288  0.000000
  0.000000  0.000000  0.000000

  -0.008093  -0.002720  0.000000
  -0.002720  0.006930  0.000000
  0.000000  0.000000  0.000000

  0.000089  -0.006804  0.000000
  -0.006804  -0.000650  0.000000
  0.000000  0.000000  0.000000

  0.005181  -0.001811  0.000000
  -0.001811  -0.006088  0.000000
  0.000000  0.000000  0.000000

  -0.015734  0.009211  0.000000
  0.009211  0.008166  0.000000
  0.000000  0.000000  0.000000

  -0.005242  -0.005563  0.000000
  -0.005563  0.004597  0.000000
  0.000000  0.000000  0.000000

  0.002904  -0.005667  0.000000
  -0.005667  -0.003494  0.000000
  0.000000  0.000000  0.000000

  -0.008936  -0.001443  0.000000
  -0.001443  0.007460  0.000000
  0.000000  0.000000  0.000000

  -0.001004  -0.006854  0.000000
  -0.006854  0.000450  0.000000
  0.000000  0.000000  0.000000

  0.005072  -0.002711  0.000000
  -0.002711  -0.005975  0.000000
  0.000000  0.000000  0.000000

  -0.011005  0.001962  0.000000
  0.001962  0.008129  0.000000
  0.000000  0.000000  0.000000

  -0.003178  -0.006526  0.000000
  -0.006526  0.002558  0.000000
  0.000000  0.000000  0.000000

  0.004248  -0.004391  0.000000
  -0.004391  -0.005004  0.000000
  0.000000  0.000000  0.000000

  -0.007185  -0.003902  0.000000
  -0.003902  0.006294  0.000000
  0.000000  0.000000  0.000000

  0.001166  -0.006558  0.000000
  -0.006558  -0.001702  0.000000
  0.000000  0.000000  0.000000

  0.005103  -0.000952  0.000000
  -0.000952  -0.006162  0.000000
  0.000000  0.000000  0.000000

  -0.066172  0.030333  0.000000
  0.030333  0.012868  0.000000
  0.000000  0.000000  0.000000

  -0.006467  -0.004579  0.000000
  -0.004579  0.005668  0.000000
  0.000000  0.000000  0.000000

  0.001862  -0.006266  0.000000
  -0.006266  -0.002428  0.000000
  0.000000  0.000000  0.000000

  0.004926  -0.000448  0.000000
  -0.000448  -0.006270  0.000000
  0.000000  0.000000  0.000000

  -0.010245  0.000472  0.000000
  0.000472  0.008311  0.000000
  0.000000  0.000000  0.000000

  -0.002296  -0.006740  0.000000
  -0.006740  0.001743  0.000000
  0.000000  0.000000  0.000000

  0.004658  -0.003770  0.000000
  -0.003770  -0.005382  0.000000
  0.000000  0.000000  0.000000

  -0.013401  0.005466  0.000000
  0.005466  0.008381  0.000000
  0.000000  0.000000  0.000000

  -0.004489  -0.005905  0.000000
  -0.005905  0.003835  0.000000
  0.000000  0.000000  0.000000

  0.003420  -0.005279  0.000000
  -0.005279  -0.004089  0.000000
  0.000000  0.000000  0.000000

  -0.008353  -0.002506  0.000000
  -0.002506  0.007274  0.000000
  0.000000  0.000000  0.000000

  -0.000203  -0.006827  0.000000
  -0.006827  -0.000358  0.000000
  0.000000  0.000000  0.000000

  0.005204  -0.002058  0.000000
  -0.002058  -0.006171  0.000000
  0.000000  0.000000  0.000000

  -0.016692  0.010995  0.000000
  0.010995  0.007832  0.000000
  0.000000  0.000000  0.000000

  -0.005568  -0.005336  0.000000
  -0.005336  0.004808  0.000000
  0.000000  0.000000  0.000000

  0.002677  -0.005835  0.000000
  -0.005835  -0.003283  0.000000
  0.000000  0.000000  0.000000

  -0.009198  -0.001137  0.000000
  -0.001137  0.007826  0.000000
  0.000000  0.000000  0.000000

  -0.001240  -0.006867  0.000000
  -0.006867  0.000686  0.000000
  0.000000  0.000000  0.000000

  0.004990  -0.002915  0.000000
  -0.002915  -0.005793  0.000000
  0.000000  0.000000  0.000000

  -0.011325  0.002624  0.000000
  0.002624  0.008556  0.000000
  0.000000  0.000000  0.000000

  -0.003435  -0.006432  0.000000
  -0.006432  0.002854  0.000000
  0.000000  0.000000  0.000000

  0.004137  -0.004505  0.000000
  -0.004505  -0.004794  0.000000
  0.000000  0.000000  0.000000

  -0.007492  -0.003577  0.000000
  -0.003577  0.006552  0.000000
  0.000000  0.000000  0.000000

  0.000789  -0.006643  0.000000
  -0.006643  -0.001377  0.000000
  0.000000  0.000000  0.000000

  0.005171  -0.001200  0.000000
  -0.001200  -0.006337  0.000000
  0.000000  0.000000  0.000000

  -0.026310  0.016536  0.000000
  0.016536  0.008462  0.000000
  0.000000  0.000000  0.000000

  -0.006081  -0.004989  0.000000
  -0.004989  0.005367  0.000000
  0.000000  0.000000  0.000000

  0.002300  -0.006051  0.000000
  -0.006051  -0.002890  0.000000
  0.000000  0.000000  0.000000

  0.005450  -0.001543  0.000000
  -0.001543  -0.005268  0.000000
  0.000000  0.000000  0.000000

  -0.009692  -0.000380  0.000000
  -0.000380  0.008074  0.000000
  0.000000  0.000000  0.000000

  -0.001734  -0.006851  0.000000
  -0.006851  0.001221  0.000000
  0.000000  0.000000  0.000000

  0.004855  -0.003370  0.000000
  -0.003370  -0.005650  0.000000
  0.000000  0.000000  0.000000

  -0.012016  0.003953  0.000000
  0.003953  0.008610  0.000000
  0.000000  0.000000  0.000000

  -0.003959  -0.006212  0.000000
  -0.006212  0.003373  0.000000
  0.000000  0.000000  0.000000

  0.003797  -0.004910  0.000000
  -0.004910  -0.004465  0.000000
  0.000000  0.000000  0.000000

  -0.007865  -0.003032  0.000000
  -0.003032  0.006924  0.000000
  0.000000  0.000000  0.000000

  0.000333  -0.006756  0.000000
  -0.006756  -0.000907  0.000000
  0.000000  0.000000  0.000000

  0.005214  -0.001652  0.000000
  -0.001652  -0.006285  0.000000
  0.000000  0.000000  0.000000

  -0.014314  0.007145  0.000000
  0.007145  0.008050  0.000000
  0.000000  0.000000  0.000000

  -0.005022  -0.005618  0.000000
  -0.005618  0.004309  0.000000
  0.000000  0.000000  0.000000

  0.003033  -0.005633  0.000000
  -0.005633  -0.003698  0.000000
  0.000000  0.000000  0.000000

  -0.008743  -0.001838  0.000000
  -0.001838  0.007563  0.000000
  0.000000  0.000000  0.000000

  -0.000723  -0.006855  0.000000
  -0.006855  0.000166  0.000000
  0.000000  0.000000  0.000000

  0.005113  -0.002437  0.000000
  -0.002437  -0.005957  0.000000
  0.000000  0.000000  0.000000

  -0.010793  0.001471  0.000000
  0.001471  0.008469  0.000000
  0.000000  0.000000  0.000000

  -0.002863  -0.006612  0.000000
  -0.006612  0.002296  0.000000
  0.000000  0.000000  0.000000

  0.004402  -0.004113  0.000000
  -0.004113  -0.005081  0.000000
  0.000000  0.000000  0.000000

  -0.006940  -0.004020  0.000000
  -0.004020  0.006043  0.000000
  0.000000  0.000000  0.000000

  0.001253  -0.006502  0.000000
  -0.006502  -0.001873  0.000000
  0.000000  0.000000  0.000000

  0.005064  -0.000798  0.000000
  -0.000798  -0.006332  0.000000
  0.000000  0.000000  0.000000

  0.006153  -0.001267  0.000000
  -0.001267  -0.003400  0.000000
  0.000000  0.000000  0.000000

  0.006710  0.000333  0.000000
  0.000333  -0.002694  0.000000
  0.000000  0.000000  0.000000

  -0.181326  -0.057780  0.000000
  -0.057780  0.025308  0.000000
  0.000000  0.000000  0.000000

  0.006589  0.000860  0.000000
  0.000860  -0.002313  0.000000
  0.000000  0.000000  0.000000

  0.006554  0.001290  0.000000
  0.001290  -0.002337  0.000000
  0.000000  0.000000  0.000000

  0.006346  0.001590  0.000000
  0.001590  -0.002074  0.000000
  0.000000  0.000000  0.000000

  0.006196  0.001941  0.000000
  0.001941  -0.002042  0.000000
  0.000000  0.000000  0.000000

  0.006036  0.002191  0.000000
  0.002191  -0.001769  0.000000
  0.000000  0.000000  0.000000

  0.005923  0.002527  0.000000
  0.002527  -0.001736  0.000000
  0.000000  0.000000  0.000000

  0.005850  0.002845  0.000000
  0.002845  -0.001481  0.000000
  0.000000  0.000000  0.000000

  0.005665  0.003245  0.000000
  0.003245  -0.001372  0.000000
  0.000000  0.000000  0.000000

  0.005523  0.003508  0.000000
  0.003508  -0.000982  0.000000
  0.000000  0.000000  0.000000

  0.005318  0.003884  0.000000
  0.003884  -0.000862  0.000000
  0.000000  0.000000  0.000000

  0.005229  0.004165  0.000000
  0.004165  -0.000437  0.000000
  0.000000  0.000000  0.000000

  0.005072  0.004576  0.000000
  0.004576  -0.000288  0.000000
  0.000000  0.000000  0.000000

  0.004879  0.005147  0.000000
  0.005147  0.000212  0.000000
  0.000000  0.000000  0.000000

  0.004273  0.007078  0.000000
  0.007078  0.002276  0.000000
  0.000000  0.000000  0.000000

  0.004872  0.010306  0.000000
  0.010306  0.006000  0.000000
  0.000000  0.000000  0.000000

  0.033294  0.045335  0.000000
  0.045335  0.023560  0.000000
  0.000000  0.000000  0.000000

  0.004513  0.005995  0.000000
  0.005995  0.000959  0.000000
  0.000000  0.000000  0.000000

  0.004178  0.008407  0.000000
  0.008407  0.003853  0.000000
  0.000000  0.000000  0.000000

  0.009519  0.017264  0.000000
  0.017264  0.010365  0.000000
  0.000000  0.000000  0.000000

  0.004785  0.005349  0.000000
  0.005349  0.000625  0.000000
  0.000000  0.000000  0.000000

  0.004013  0.007932  0.000000
  0.007932  0.003016  0.000000
  0.000000  0.000000  0.000000

  0.004736  0.014347  0.000000
  0.014347  0.008766  0.000000
  0.000000  0.000000  0.000000

  0.123955  0.098782  0.000000
  0.098782  0.021427  0.000000
  0.000000  0.000000  0.000000

  0.004375  0.006250  0.000000
  0.006250  0.001703  0.000000
  0.000000  0.000000  0.000000

  0.003600  0.010037  0.000000
  0.010037  0.004948  0.000000
  0.000000  0.000000  0.000000

  0.012953  0.028904  0.000000
  0.028904  0.016014  0.000000
  0.000000  0.000000  0.000000

  -0.068138  0.026714  0.000000
  0.026714  0.034054  0.000000
  0.000000  0.000000  0.000000

  -0.104600  0.010707  0.000000
  0.010707  0.035900  0.000000
  0.000000  0.000000  0.000000

  -0.014127  0.005085  0.000000
  0.005085  0.008203  0.000000
  0.000000  0.000000  0.000000

  -0.015930  0.003755  0.000000
  0.003755  0.010016  0.000000
  0.000000  0.000000  0.000000

  -0.005786  -0.005635  0.000000
  -0.005635  0.004598  0.000000
  0.000000  0.000000  0.000000

  -0.005558  -0.005890  0.000000
  -0.005890  0.004856  0.000000
  0.000000  0.000000  0.000000

  0.004579  -0.004185  0.000000
  -0.004185  -0.005052  0.000000
  0.000000  0.000000  0.000000

  0.004701  -0.004310  0.000000
  -0.004310  -0.005314  0.000000
  0.000000  0.000000  0.000000

  -0.010199  -0.000879  0.000000
  -0.000879  0.007779  0.000000
  0.000000  0.000000  0.000000

  -0.010275  -0.001403  0.000000
  -0.001403  0.008338  0.000000
  0.000000  0.000000  0.000000

  0.001212  -0.006569  0.000000
  -0.006569  -0.001788  0.000000
  0.000000  0.000000  0.000000

  0.001307  -0.006757  0.000000
  -0.006757  -0.001853  0.000000
  0.000000  0.000000  0.000000

  -0.001724  -0.006884  0.000000
  -0.006884  0.000974  0.000000
  0.000000  0.000000  0.000000

  -0.001681  -0.007079  0.000000
  -0.007079  0.001097  0.000000
  0.000000  0.000000  0.000000

  -0.004818  -0.006029  0.000000
  -0.006029  0.003791  0.000000
  0.000000  0.000000  0.000000

  -0.004755  -0.006195  0.000000
  -0.006195  0.004044  0.000000
  0.000000  0.000000  0.000000

  0.003040  -0.005710  0.000000
  -0.005710  -0.003507  0.000000
  0.000000  0.000000  0.000000

  0.003064  -0.005866  0.000000
  -0.005866  -0.003703  0.000000
  0.000000  0.000000  0.000000

  -0.007842  -0.003889  0.000000
  -0.003889  0.006296  0.000000
  0.000000  0.000000  0.000000

  -0.007687  -0.004131  0.000000
  -0.004131  0.006641  0.000000
  0.000000  0.000000  0.000000

  0.005769  -0.001528  0.000000
  -0.001528  -0.006222  0.000000
  0.000000  0.000000  0.000000

  0.005831  -0.001536  0.000000
  -0.001536  -0.006571  0.000000
  0.000000  0.000000  0.000000

  0.004954  -0.003849  0.000000
  -0.003849  -0.005361  0.000000
  0.000000  0.000000  0.000000

  0.004944  -0.003994  0.000000
  -0.003994  -0.005694  0.000000
  0.000000  0.000000  0.000000

  -0.017323  0.008883  0.000000
  0.008883  0.007951  0.000000
  0.000000  0.000000  0.000000

  -0.019345  0.006022  0.000000
  0.006022  0.010598  0.000000
  0.000000  0.000000  0.000000

  -0.011429  0.000932  0.000000
  0.000932  0.008176  0.000000
  0.000000  0.000000  0.000000

  -0.011795  0.000213  0.000000
  0.000213  0.009014  0.000000
  0.000000  0.000000  0.000000

  0.000180  -0.006886  0.000000
  -0.006886  -0.000752  0.000000
  0.000000  0.000000  0.000000

  0.000133  -0.007093  0.000000
  -0.007093  -0.000796  0.000000
  0.000000  0.000000  0.000000

  0.005311  -0.002962  0.000000
  -0.002962  -0.005786  0.000000
  0.000000  0.000000  0.000000

  0.005408  -0.003005  0.000000
  -0.003005  -0.006076  0.000000
  0.000000  0.000000  0.000000

  -0.003785  -0.006559  0.000000
  -0.006559  0.002833  0.000000
  0.000000  0.000000  0.000000

  -0.003609  -0.006760  0.000000
  -0.006760  0.003047  0.000000
  0.000000  0.000000  0.000000

  0.001934  -0.006293  0.000000
  -0.006293  -0.002483  0.000000
  0.000000  0.000000  0.000000

  0.001979  -0.006490  0.000000
  -0.006490  -0.002576  0.000000
  0.000000  0.000000  0.000000

  0.004065  -0.004984  0.000000
  -0.004984  -0.004473  0.000000
  0.000000  0.000000  0.000000

  0.004042  -0.005132  0.000000
  -0.005132  -0.004737  0.000000
  0.000000  0.000000  0.000000

  0.005555  -0.002321  0.000000
  -0.002321  -0.006026  0.000000
  0.000000  0.000000  0.000000

  0.005574  -0.002368  0.000000
  -0.002368  -0.006294  0.000000
  0.000000  0.000000  0.000000

  -0.012134  0.002069  0.000000
  0.002069  0.008280  0.000000
  0.000000  0.000000  0.000000

  -0.012764  0.001208  0.000000
  0.001208  0.009311  0.000000
  0.000000  0.000000  0.000000

  -0.006267  -0.005253  0.000000
  -0.005253  0.005011  0.000000
  0.000000  0.000000  0.000000

  -0.006125  -0.005459  0.000000
  -0.005459  0.005309  0.000000
  0.000000  0.000000  0.000000

  0.006733  -0.000718  0.000000
  -0.000718  -0.006529  0.000000
  0.000000  0.000000  0.000000

  0.006364  -0.001618  0.000000
  -0.001618  -0.005494  0.000000
  0.000000  0.000000  0.000000

  -0.008865  -0.002883  0.000000
  -0.002883  0.007002  0.000000
  0.000000  0.000000  0.000000

  -0.008836  -0.003014  0.000000
  -0.003014  0.007477  0.000000
  0.000000  0.000000  0.000000

  -0.000626  -0.006973  0.000000
  -0.006973  -0.000105  0.000000
  0.000000  0.000000  0.000000

  -0.000460  -0.007163  0.000000
  -0.007163  -0.000009  0.000000
  0.000000  0.000000  0.000000

  0.001735  -0.006438  0.000000
  -0.006438  -0.002356  0.000000
  0.000000  0.000000  0.000000

  0.001992  -0.006622  0.000000
  -0.006622  -0.002401  0.000000
  0.000000  0.000000  0.000000

  0.003815  -0.005075  0.000000
  -0.005075  -0.004334  0.000000
  0.000000  0.000000  0.000000

  0.004050  -0.005198  0.000000
  -0.005198  -0.004540  0.000000
  0.000000  0.000000  0.000000

  -0.010001  -0.001556  0.000000
  -0.001556  0.007643  0.000000
  0.000000  0.000000  0.000000

  -0.009989  -0.001655  0.000000
  -0.001655  0.008230  0.000000
  0.000000  0.000000  0.000000

  0.001475  -0.006583  0.000000
  -0.006583  -0.001976  0.000000
  0.000000  0.000000  0.000000

  0.001363  -0.006785  0.000000
  -0.006785  -0.002082  0.000000
  0.000000  0.000000  0.000000

  0.005222  -0.003175  0.000000
  -0.003175  -0.005721  0.000000
  0.000000  0.000000  0.000000

  0.005540  -0.003107  0.000000
  -0.003107  -0.006038  0.000000
  0.000000  0.000000  0.000000

  -0.044481  0.028513  0.000000
  0.028513  0.013004  0.000000
  0.000000  0.000000  0.000000

  -0.072759  0.010104  0.000000
  0.010104  0.026806  0.000000
  0.000000  0.000000  0.000000

  -0.014600  0.003932  0.000000
  0.003932  0.008846  0.000000
  0.000000  0.000000  0.000000

  -0.014748  0.003514  0.000000
  0.003514  0.010023  0.000000
  0.000000  0.000000  0.000000

  -0.009225  -0.002383  0.000000
  -0.002383  0.007259  0.000000
  0.000000  0.000000  0.000000

  -0.009050  -0.002791  0.000000
  -0.002791  0.007602  0.000000
  0.000000  0.000000  0.000000

  -0.000917  -0.006949  0.000000
  -0.006949  0.000303  0.000000
  0.000000  0.000000  0.000000

  -0.001024  -0.007149  0.000000
  -0.007149  0.000320  0.000000
  0.000000  0.000000  0.000000

  0.005966  -0.001149  0.000000
  -0.001149  -0.006378  0.000000
  0.000000  0.000000  0.000000

  0.005902  -0.001476  0.000000
  -0.001476  -0.006588  0.000000
  0.000000  0.000000  0.000000

  -0.006644  -0.005011  0.000000
  -0.005011  0.005367  0.000000
  0.000000  0.000000  0.000000

  -0.006405  -0.005336  0.000000
  -0.005336  0.005482  0.000000
  0.000000  0.000000  0.000000

  -0.004549  -0.006143  0.000000
  -0.006143  0.003628  0.000000
  0.000000  0.000000  0.000000

  -0.004786  -0.006269  0.000000
  -0.006269  0.003875  0.000000
  0.000000  0.000000  0.000000

  0.003351  -0.005664  0.000000
  -0.005664  -0.003776  0.000000
  0.000000  0.000000  0.000000

  0.003223  -0.005818  0.000000
  -0.005818  -0.003924  0.000000
  0.000000  0.000000  0.000000

  0.004878  -0.004050  0.000000
  -0.004050  -0.005274  0.000000
  0.000000  0.000000  0.000000

  0.004790  -0.004200  0.000000
  -0.004200  -0.005520  0.000000
  0.000000  0.000000  0.000000

  -0.018158  0.010182  0.000000
  0.010182  0.008103  0.000000
  0.000000  0.000000  0.000000

  -0.023714  0.007043  0.000000
  0.007043  0.012083  0.000000
  0.000000  0.000000  0.000000

  -0.003435  -0.006572  0.000000
  -0.006572  0.002623  0.000000
  0.000000  0.000000  0.000000

  -0.003547  -0.006750  0.000000
  -0.006750  0.002788  0.000000
  0.000000  0.000000  0.000000

  -0.008148  -0.003574  0.000000
  -0.003574  0.006567  0.000000
  0.000000  0.000000  0.000000

  -0.007924  -0.003995  0.000000
  -0.003995  0.006648  0.000000
  0.000000  0.000000  0.000000

  -0.011396  0.000077  0.000000
  0.000077  0.008214  0.000000
  0.000000  0.000000  0.000000

  -0.011366  -0.000114  0.000000
  -0.000114  0.008973  0.000000
  0.000000  0.000000  0.000000

  0.000461  -0.006863  0.000000
  -0.006863  -0.001179  0.000000
  0.000000  0.000000  0.000000

  0.000417  -0.007198  0.000000
  -0.007198  -0.001059  0.000000
  0.000000  0.000000  0.000000

  -0.005922  -0.005416  0.000000
  -0.005416  0.004790  0.000000
  0.000000  0.000000  0.000000

  -0.006099  -0.005500  0.000000
  -0.005500  0.005097  0.000000
  0.000000  0.000000  0.000000

  0.004607  -0.004427  0.000000
  -0.004427  -0.005009  0.000000
  0.000000  0.000000  0.000000

  0.004492  -0.004568  0.000000
  -0.004568  -0.005179  0.000000
  0.000000  0.000000  0.000000

  0.006300  -0.000389  0.000000
  -0.000389  -0.004234  0.000000
  0.000000  0.000000  0.000000

  0.006768  -0.001858  0.000000
  -0.001858  -0.005534  0.000000
  0.000000  0.000000  0.000000

  -0.002061  -0.006971  0.000000
  -0.006971  0.001248  0.000000
  0.000000  0.000000  0.000000

  -0.001834  -0.007140  0.000000
  -0.007140  0.001355  0.000000
  0.000000  0.000000  0.000000

  0.005750  -0.002068  0.000000
  -0.002068  -0.006188  0.000000
  0.000000  0.000000  0.000000

  0.005629  -0.002305  0.000000
  -0.002305  -0.006296  0.000000
  0.000000  0.000000  0.000000

  -0.012218  0.001136  0.000000
  0.001136  0.008445  0.000000
  0.000000  0.000000  0.000000

  -0.012208  0.000870  0.000000
  0.000870  0.009325  0.000000
  0.000000  0.000000  0.000000

  -0.007040  -0.004653  0.000000
  -0.004653  0.005659  0.000000
  0.000000  0.000000  0.000000

  -0.006945  -0.004850  0.000000
  -0.004850  0.006006  0.000000
  0.000000  0.000000  0.000000

  -0.004354  -0.006346  0.000000
  -0.006346  0.003342  0.000000
  0.000000  0.000000  0.000000

  -0.004168  -0.006551  0.000000
  -0.006551  0.003565  0.000000
  0.000000  0.000000  0.000000

  0.002858  -0.005824  0.000000
  -0.005824  -0.003450  0.000000
  0.000000  0.000000  0.000000

  0.003105  -0.005973  0.000000
  -0.005973  -0.003531  0.000000
  0.000000  0.000000  0.000000

  -0.007421  -0.004365  0.000000
  -0.004365  0.005990  0.000000
  0.000000  0.000000  0.000000

  -0.007164  -0.004689  0.000000
  -0.004689  0.006101  0.000000
  0.000000  0.000000  0.000000

  -0.001481  -0.006955  0.000000
  -0.006955  0.000836  0.000000
  0.000000  0.000000  0.000000

  -0.001664  -0.007159  0.000000
  -0.007159  0.000892  0.000000
  0.000000  0.000000  0.000000

  0.005899  -0.001135  0.000000
  -0.001135  -0.006295  0.000000
  0.000000  0.000000  0.000000

  0.005921  -0.001158  0.000000
  -0.001158  -0.006600  0.000000
  0.000000  0.000000  0.000000

  0.005244  -0.003408  0.000000
  -0.003408  -0.005649  0.000000
  0.000000  0.000000  0.000000

  0.005210  -0.003518  0.000000
  -0.003518  -0.005946  0.000000
  0.000000  0.000000  0.000000

  0.003443  -0.005406  0.000000
  -0.005406  -0.003932  0.000000
  0.000000  0.000000  0.000000

  0.003586  -0.005542  0.000000
  -0.005542  -0.004137  0.000000
  0.000000  0.000000  0.000000

  -0.009686  -0.001639  0.000000
  -0.001639  0.007531  0.000000
  0.000000  0.000000  0.000000

  -0.009677  -0.002131  0.000000
  -0.002131  0.008028  0.000000
  0.000000  0.000000  0.000000

  0.000986  -0.006734  0.000000
  -0.006734  -0.001645  0.000000
  0.000000  0.000000  0.000000

  0.001224  -0.006892  0.000000
  -0.006892  -0.001637  0.000000
  0.000000  0.000000  0.000000

  -0.032530  0.021517  0.000000
  0.021517  0.009893  0.000000
  0.000000  0.000000  0.000000

  -0.053968  0.009854  0.000000
  0.009854  0.019459  0.000000
  0.000000  0.000000  0.000000

  -0.015135  0.005853  0.000000
  0.005853  0.008402  0.000000
  0.000000  0.000000  0.000000

  -0.018059  0.003994  0.000000
  0.003994  0.010688  0.000000
  0.000000  0.000000  0.000000

  -0.005213  -0.005928  0.000000
  -0.005928  0.004141  0.000000
  0.000000  0.000000  0.000000

  -0.004968  -0.006123  0.000000
  -0.006123  0.004263  0.000000
  0.000000  0.000000  0.000000

  -0.002612  -0.006868  0.000000
  -0.006868  0.001770  0.000000
  0.000000  0.000000  0.000000

  -0.002411  -0.007074  0.000000
  -0.007074  0.001909  0.000000
  0.000000  0.000000  0.000000

  0.005660  -0.001961  0.000000
  -0.001961  -0.006116  0.000000
  0.000000  0.000000  0.000000

  0.005755  -0.001973  0.000000
  -0.001973  -0.006490  0.000000
  0.000000  0.000000  0.000000

  -0.013204  0.002403  0.000000
  0.002403  0.008625  0.000000
  0.000000  0.000000  0.000000

  -0.013255  0.002009  0.000000
  0.002009  0.009721  0.000000
  0.000000  0.000000  0.000000

  0.004195  -0.004725  0.000000
  -0.004725  -0.004726  0.000000
  0.000000  0.000000  0.000000

  0.004363  -0.005118  0.000000
  -0.005118  -0.004828  0.000000
  0.000000  0.000000  0.000000

  0.006424  -0.000359  0.000000
  -0.000359  -0.006524  0.000000
  0.000000  0.000000  0.000000

  0.006537  -0.001357  0.000000
  -0.001357  -0.006547  0.000000
  0.000000  0.000000  0.000000

  -0.008392  -0.003432  0.000000
  -0.003432  0.006653  0.000000
  0.000000  0.000000  0.000000

  -0.008261  -0.003681  0.000000
  -0.003681  0.007126  0.000000
  0.000000  0.000000  0.000000

  -0.022244  0.015115  0.000000
  0.015115  0.006883  0.000000
  0.000000  0.000000  0.000000

  -0.029945  0.009987  0.000000
  0.009987  0.012905  0.000000
  0.000000  0.000000  0.000000

  -0.003200  -0.006743  0.000000
  -0.006743  0.002284  0.000000
  0.000000  0.000000  0.000000

  -0.003004  -0.006961  0.000000
  -0.006961  0.002497  0.000000
  0.000000  0.000000  0.000000

  0.002405  -0.006062  0.000000
  -0.006062  -0.002983  0.000000
  0.000000  0.000000  0.000000

  0.002556  -0.006234  0.000000
  -0.006234  -0.003051  0.000000
  0.000000  0.000000  0.000000

  -0.010784  -0.000040  0.000000
  -0.000040  0.007995  0.000000
  0.000000  0.000000  0.000000

  -0.010971  -0.000646  0.000000
  -0.000646  0.008666  0.000000
  0.000000  0.000000  0.000000

  -0.000073  -0.006945  0.000000
  -0.006945  -0.000606  0.000000
  0.000000  0.000000  0.000000

  0.000126  -0.007138  0.000000
  -0.007138  -0.000585  0.000000
  0.000000  0.000000  0.000000

  0.005438  -0.002555  0.000000
  -0.002555  -0.005949  0.000000
  0.000000  0.000000  0.000000

  0.005709  -0.002440  0.000000
  -0.002440  -0.006260  0.000000
  0.000000  0.000000  0.000000

  0.006213  -0.000744  0.000000
  -0.000744  -0.006412  0.000000
  0.000000  0.000000  0.000000

  0.006084  -0.000998  0.000000
  -0.000998  -0.006534  0.000000
  0.000000  0.000000  0.000000

  -0.008668  -0.002949  0.000000
  -0.002949  0.006926  0.000000
  0.000000  0.000000  0.000000

  -0.008591  -0.003469  0.000000
  -0.003469  0.007226  0.000000
  0.000000  0.000000  0.000000

  -0.001178  -0.006978  0.000000
  -0.006978  0.000420  0.000000
  0.000000  0.000000  0.000000

  -0.001027  -0.007161  0.000000
  -0.007161  0.000537  0.000000
  0.000000  0.000000  0.000000

  0.006076  -0.000734  0.000000
  -0.000734  -0.006433  0.000000
  0.000000  0.000000  0.000000

  0.006055  -0.001216  0.000000
  -0.001216  -0.006594  0.000000
  0.000000  0.000000  0.000000

  -0.012970  0.003462  0.000000
  0.003462  0.008278  0.000000
  0.000000  0.000000  0.000000

  -0.014058  0.002362  0.000000
  0.002362  0.009659  0.000000
  0.000000  0.000000  0.000000

  -0.006727  -0.004863  0.000000
  -0.004863  0.005428  0.000000
  0.000000  0.000000  0.000000

  -0.006943  -0.004922  0.000000
  -0.004922  0.005814  0.000000
  0.000000  0.000000  0.000000

  -0.003982  -0.006379  0.000000
  -0.006379  0.003106  0.000000
  0.000000  0.000000  0.000000

  -0.004094  -0.006549  0.000000
  -0.006549  0.003308  0.000000
  0.000000  0.000000  0.000000

  -0.000369  -0.006928  0.000000
  -0.006928  -0.000216  0.000000
  0.000000  0.000000  0.000000

  -0.000457  -0.007138  0.000000
  -0.007138  -0.000234  0.000000
  0.000000  0.000000  0.000000

  0.005549  -0.002724  0.000000
  -0.002724  -0.005978  0.000000
  0.000000  0.000000  0.000000

  0.005453  -0.002899  0.000000
  -0.002899  -0.006152  0.000000
  0.000000  0.000000  0.000000

  -0.025879  0.018052  0.000000
  0.018052  0.007993  0.000000
  0.000000  0.000000  0.000000

  -0.037940  0.014426  0.000000
  0.014426  0.016237  0.000000
  0.000000  0.000000  0.000000

  0.002226  -0.006307  0.000000
  -0.006307  -0.002692  0.000000
  0.000000  0.000000  0.000000

  0.002104  -0.006480  0.000000
  -0.006480  -0.002820  0.000000
  0.000000  0.000000  0.000000

  0.003716  -0.005336  0.000000
  -0.005336  -0.004140  0.000000
  0.000000  0.000000  0.000000

  0.003641  -0.005516  0.000000
  -0.005516  -0.004338  0.000000
  0.000000  0.000000  0.000000

  -0.009411  -0.002263  0.000000
  -0.002263  0.007324  0.000000
  0.000000  0.000000  0.000000

  -0.009397  -0.002379  0.000000
  -0.002379  0.007882  0.000000
  0.000000  0.000000  0.000000

  -0.017198  0.007078  0.000000
  0.007078  0.008731  0.000000
  0.000000  0.000000  0.000000

  -0.017751  0.005960  0.000000
  0.005960  0.010593  0.000000
  0.000000  0.000000  0.000000

  -0.005328  -0.005758  0.000000
  -0.005758  0.004248  0.000000
  0.000000  0.000000  0.000000

  -0.005349  -0.005938  0.000000
  -0.005938  0.004538  0.000000
  0.000000  0.000000  0.000000

  0.004317  -0.004547  0.000000
  -0.004547  -0.004797  0.000000
  0.000000  0.000000  0.000000

  0.004408  -0.004667  0.000000
  -0.004667  -0.005012  0.000000
  0.000000  0.000000  0.000000

  0.000703  -0.006734  0.000000
  -0.006734  -0.001274  0.000000
  0.000000  0.000000  0.000000

  0.000727  -0.006918  0.000000
  -0.006918  -0.001341  0.000000
  0.000000  0.000000  0.000000

  -0.002284  -0.006826  0.000000
  -0.006826  0.001518  0.000000
  0.000000  0.000000  0.000000

  -0.002336  -0.007014  0.000000
  -0.007014  0.001671  0.000000
  0.000000  0.000000  0.000000

  0.005881  -0.001616  0.000000
  -0.001616  -0.006301  0.000000
  0.000000  0.000000  0.000000

  0.005803  -0.001852  0.000000
  -0.001852  -0.006540  0.000000
  0.000000  0.000000  0.000000

  0.002652  -0.006034  0.000000
  -0.006034  -0.003102  0.000000
  0.000000  0.000000  0.000000

  0.002574  -0.006208  0.000000
  -0.006208  -0.003273  0.000000
  0.000000  0.000000  0.000000

  -0.007465  -0.004208  0.000000
  -0.004208  0.006029  0.000000
  0.000000  0.000000  0.000000

  -0.007584  -0.004240  0.000000
  -0.004240  0.006421  0.000000
  0.000000  0.000000  0.000000

  -0.010658  -0.000790  0.000000
  -0.000790  0.007943  0.000000
  0.000000  0.000000  0.000000

  -0.010635  -0.000910  0.000000
  -0.000910  0.008578  0.000000
  0.000000  0.000000  0.000000

  0.005005  -0.003582  0.000000
  -0.003582  -0.005510  0.000000
  0.000000  0.000000  0.000000

  0.005224  -0.003609  0.000000
  -0.003609  -0.005782  0.000000
  0.000000  0.000000  0.000000

  -0.021118  0.012890  0.000000
  0.012890  0.008005  0.000000
  0.000000  0.000000  0.000000

  -0.024492  0.009828  0.000000
  0.009828  0.012274  0.000000
  0.000000  0.000000  0.000000

  -0.002847  -0.006714  0.000000
  -0.006714  0.002069  0.000000
  0.000000  0.000000  0.000000

  -0.002927  -0.006920  0.000000
  -0.006920  0.002208  0.000000
  0.000000  0.000000  0.000000

  -0.097597  -0.030533  0.000000
  -0.030533  0.011881  0.000000
  0.000000  0.000000  0.000000

  0.006144  -0.000095  0.000000
  -0.000095  -0.002213  0.000000
  0.000000  0.000000  0.000000

  0.005900  -0.001304  0.000000
  -0.001304  -0.003518  0.000000
  0.000000  0.000000  0.000000

  0.006097  0.000590  0.000000
  0.000590  -0.002051  0.000000
  0.000000  0.000000  0.000000

  0.006435  -0.000051  0.000000
  -0.000051  -0.003089  0.000000
  0.000000  0.000000  0.000000

  -0.113562  -0.062307  0.000000
  -0.062307  0.012085  0.000000
  0.000000  0.000000  0.000000

  0.006548  0.000995  0.000000
  0.000995  -0.002133  0.000000
  0.000000  0.000000  0.000000

  0.006523  0.000546  0.000000
  0.000546  -0.002966  0.000000
  0.000000  0.000000  0.000000

  -0.100672  -0.006499  0.000000
  -0.006499  0.002260  0.000000
  0.000000  0.000000  0.000000

  -0.097423  -0.045460  0.000000
  -0.045460  0.026685  0.000000
  0.000000  0.000000  0.000000

  -0.113293  -0.031103  0.000000
  -0.031103  0.019719  0.000000
  0.000000  0.000000  0.000000

  0.006439  0.001449  0.000000
  0.001449  -0.002003  0.000000
  0.000000  0.000000  0.000000

  0.006668  0.001177  0.000000
  0.001177  -0.002646  0.000000
  0.000000  0.000000  0.000000

  0.006636  0.001761  0.000000
  0.001761  -0.001979  0.000000
  0.000000  0.000000  0.000000

  0.006653  0.001613  0.000000
  0.001613  -0.002640  0.000000
  0.000000  0.000000  0.000000

  0.006455  0.002198  0.000000
  0.002198  -0.001787  0.000000
  0.000000  0.000000  0.000000

  0.006721  0.001985  0.000000
  0.001985  -0.002388  0.000000
  0.000000  0.000000  0.000000

  0.006595  0.002453  0.000000
  0.002453  -0.001730  0.000000
  0.000000  0.000000  0.000000

  0.006621  0.002394  0.000000
  0.002394  -0.002342  0.000000
  0.000000  0.000000  0.000000

  0.006358  0.002878  0.000000
  0.002878  -0.001494  0.000000
  0.000000  0.000000  0.000000

  0.006733  0.002659  0.000000
  0.002659  -0.002129  0.000000
  0.000000  0.000000  0.000000

  0.006556  0.003251  0.000000
  0.003251  -0.001380  0.000000
  0.000000  0.000000  0.000000

  0.006617  0.003193  0.000000
  0.003193  -0.002179  0.000000
  0.000000  0.000000  0.000000

  0.006186  0.003732  0.000000
  0.003732  -0.000995  0.000000
  0.000000  0.000000  0.000000

  0.006774  0.003512  0.000000
  0.003512  -0.001878  0.000000
  0.000000  0.000000  0.000000

  0.006417  0.004088  0.000000
  0.004088  -0.000866  0.000000
  0.000000  0.000000  0.000000

  0.006528  0.004033  0.000000
  0.004033  -0.001721  0.000000
  0.000000  0.000000  0.000000

  0.005975  0.004551  0.000000
  0.004551  -0.000396  0.000000
  0.000000  0.000000  0.000000

  0.006846  0.004334  0.000000
  0.004334  -0.001463  0.000000
  0.000000  0.000000  0.000000

  0.006313  0.005002  0.000000
  0.005002  -0.000227  0.000000
  0.000000  0.000000  0.000000

  0.006567  0.004888  0.000000
  0.004888  -0.001268  0.000000
  0.000000  0.000000  0.000000

  0.005834  0.005459  0.000000
  0.005459  0.000280  0.000000
  0.000000  0.000000  0.000000

  0.007145  0.005254  0.000000
  0.005254  -0.001055  0.000000
  0.000000  0.000000  0.000000

  0.006026  0.006331  0.000000
  0.006331  0.000941  0.000000
  0.000000  0.000000  0.000000

  0.006756  0.006477  0.000000
  0.006477  -0.000988  0.000000
  0.000000  0.000000  0.000000

  0.005475  0.007279  0.000000
  0.007279  0.002229  0.000000
  0.000000  0.000000  0.000000

  0.006854  0.007235  0.000000
  0.007235  0.000526  0.000000
  0.000000  0.000000  0.000000

  0.005436  0.010413  0.000000
  0.010413  0.005282  0.000000
  0.000000  0.000000  0.000000

  0.009410  0.010620  0.000000
  0.010620  0.001373  0.000000
  0.000000  0.000000  0.000000

  0.005326  0.013650  0.000000
  0.013650  0.009058  0.000000
  0.000000  0.000000  0.000000

  0.010860  0.013677  0.000000
  0.013677  0.003414  0.000000
  0.000000  0.000000  0.000000

  0.005438  0.015401  0.000000
  0.015401  0.009730  0.000000
  0.000000  0.000000  0.000000

  0.015340  0.019153  0.000000
  0.019153  0.004045  0.000000
  0.000000  0.000000  0.000000

  0.011595  0.026080  0.000000
  0.026080  0.012912  0.000000
  0.000000  0.000000  0.000000

  0.033450  0.030624  0.000000
  0.030624  0.002206  0.000000
  0.000000  0.000000  0.000000

  0.125036  -0.002004  0.000000
  -0.002004  -0.019692  0.000000
  0.000000  0.000000  0.000000

  -0.066958  -0.021149  0.000000
  -0.021149  -0.009817  0.000000
  0.000000  0.000000  0.000000

  0.005804  0.009355  0.000000
  0.009355  0.003810  0.000000
  0.000000  0.000000  0.000000

  0.007651  0.009684  0.000000
  0.009684  0.001205  0.000000
  0.000000  0.000000  0.000000

  0.006360  0.012473  0.000000
  0.012473  0.006240  0.000000
  0.000000  0.000000  0.000000

  0.008283  0.012818  0.000000
  0.012818  0.003360  0.000000
  0.000000  0.000000  0.000000

  0.006203  0.019304  0.000000
  0.019304  0.014160  0.000000
  0.000000  0.000000  0.000000

  0.021413  0.022057  0.000000
  0.022057  0.003699  0.000000
  0.000000  0.000000  0.000000

  0.015193  0.036856  0.000000
  0.036856  0.019794  0.000000
  0.000000  0.000000  0.000000

  0.034044  0.027876  0.000000
  0.027876  -0.005874  0.000000
  0.000000  0.000000  0.000000

  0.034221  0.051255  0.000000
  0.051255  0.003144  0.000000
  0.000000  0.000000  0.000000

  0.076712  0.054471  0.000000
  0.054471  -0.004438  0.000000
  0.000000  0.000000  0.000000

  0.006260  0.006855  0.000000
  0.006855  0.001125  0.000000
  0.000000  0.000000  0.000000

  0.006272  0.007038  0.000000
  0.007038  0.000459  0.000000
  0.000000  0.000000  0.000000

  0.005420  0.008143  0.000000
  0.008143  0.002832  0.000000
  0.000000  0.000000  0.000000

  0.008344  0.008179  0.000000
  0.008179  0.000345  0.000000
  0.000000  0.000000  0.000000

  0.186794  -0.031757  0.000000
  -0.031757  -0.033149  0.000000
  0.000000  0.000000  0.000000

  -0.084004  -0.056425  0.000000
  -0.056425  0.008459  0.000000
  0.000000  0.000000  0.000000

  -0.081505  -0.053866  0.000000
  -0.053866  0.010588  0.000000
  0.000000  0.000000  0.000000

  -0.095015  -0.028217  0.000000
  -0.028217  0.020165  0.000000
  0.000000  0.000000  0.000000

  -0.071884  -0.022536  0.000000
  -0.022536  0.013355  0.000000
  0.000000  0.000000  0.000000

  0.089617  0.017959  0.000000
  0.017959  0.029999  0.000000
  0.000000  0.000000  0.000000

  0.086691  0.001142  0.000000
  0.001142  -0.019688  0.000000
  0.000000  0.000000  0.000000

  0.089379  -0.023538  0.000000
  -0.023538  -0.033834  0.000000
  0.000000  0.000000  0.000000

  -0.070624  -0.048218  0.000000
  -0.048218  0.007255  0.000000
  0.000000  0.000000  0.000000

  -0.069590  -0.046573  0.000000
  -0.046573  0.009856  0.000000
  0.000000  0.000000  0.000000

  -0.082811  -0.032503  0.000000
  -0.032503  0.017899  0.000000
  0.000000  0.000000  0.000000

  0.004969  -0.004719  0.000000
  -0.004719  -0.005189  0.000000
  0.000000  0.000000  0.000000

  0.004496  -0.004787  0.000000
  -0.004787  -0.004936  0.000000
  0.000000  0.000000  0.000000

  0.000713  -0.007042  0.000000
  -0.007042  -0.001113  0.000000
  0.000000  0.000000  0.000000

  0.000960  -0.007012  0.000000
  -0.007012  -0.001634  0.000000
  0.000000  0.000000  0.000000

  0.006476  -0.002300  0.000000
  -0.002300  -0.006597  0.000000
  0.000000  0.000000  0.000000

  0.005624  -0.003604  0.000000
  -0.003604  -0.005929  0.000000
  0.000000  0.000000  0.000000

  -0.001336  -0.007285  0.000000
  -0.007285  0.000671  0.000000
  0.000000  0.000000  0.000000

  -0.015351  0.001698  0.000000
  0.001698  0.010016  0.000000
  0.000000  0.000000  0.000000

  0.002407  -0.006521  0.000000
  -0.006521  -0.002833  0.000000
  0.000000  0.000000  0.000000

  -0.055191  0.008251  0.000000
  0.008251  0.025942  0.000000
  0.000000  0.000000  0.000000

  -0.004581  -0.006662  0.000000
  -0.006662  0.003558  0.000000
  0.000000  0.000000  0.000000

  0.007099  -0.001461  0.000000
  -0.001461  -0.006880  0.000000
  0.000000  0.000000  0.000000

  -0.011901  -0.001423  0.000000
  -0.001423  0.008710  0.000000
  0.000000  0.000000  0.000000

  0.005391  -0.004010  0.000000
  -0.004010  -0.005755  0.000000
  0.000000  0.000000  0.000000

  -0.009628  -0.003546  0.000000
  -0.003546  0.007485  0.000000
  0.000000  0.000000  0.000000

  -0.004015  -0.006908  0.000000
  -0.006908  0.003011  0.000000
  0.000000  0.000000  0.000000

  -0.011138  -0.002210  0.000000
  -0.002210  0.008320  0.000000
  0.000000  0.000000  0.000000

  -0.000758  -0.007314  0.000000
  -0.007314  0.000082  0.000000
  0.000000  0.000000  0.000000

  -0.006063  -0.005996  0.000000
  -0.005996  0.004834  0.000000
  0.000000  0.000000  0.000000

  0.006777  -0.001890  0.000000
  -0.001890  -0.006741  0.000000
  0.000000  0.000000  0.000000

  -0.008832  -0.004036  0.000000
  -0.004036  0.007014  0.000000
  0.000000  0.000000  0.000000

  0.007598  -0.001046  0.000000
  -0.001046  -0.006647  0.000000
  0.000000  0.000000  0.000000

  -0.017436  0.003246  0.000000
  0.003246  0.010691  0.000000
  0.000000  0.000000  0.000000

  -0.013983  0.000463  0.000000
  0.000463  0.009558  0.000000
  0.000000  0.000000  0.000000

  -0.037191  0.009168  0.000000
  0.009168  0.018202  0.000000
  0.000000  0.000000  0.000000

  -0.012912  -0.000622  0.000000
  -0.000622  0.009118  0.000000
  0.000000  0.000000  0.000000

  0.005300  -0.004334  0.000000
  -0.004334  -0.005513  0.000000
  0.000000  0.000000  0.000000

  -0.003423  -0.007072  0.000000
  -0.007072  0.002524  0.000000
  0.000000  0.000000  0.000000

  0.007270  -0.001122  0.000000
  -0.001122  -0.006927  0.000000
  0.000000  0.000000  0.000000

  0.003569  -0.005909  0.000000
  -0.005909  -0.003902  0.000000
  0.000000  0.000000  0.000000

  -0.002780  -0.007188  0.000000
  -0.007188  0.001912  0.000000
  0.000000  0.000000  0.000000

  0.092814  -0.031415  0.000000
  -0.031415  -0.016257  0.000000
  0.000000  0.000000  0.000000

  0.051989  -0.022554  0.000000
  -0.022554  -0.018133  0.000000
  0.000000  0.000000  0.000000

  0.007147  -0.000900  0.000000
  -0.000900  -0.004194  0.000000
  0.000000  0.000000  0.000000

  0.006772  0.000268  0.000000
  0.000268  -0.002789  0.000000
  0.000000  0.000000  0.000000

  0.007104  0.001459  0.000000
  0.001459  -0.002588  0.000000
  0.000000  0.000000  0.000000

  0.007347  0.002421  0.000000
  0.002421  -0.002386  0.000000
  0.000000  0.000000  0.000000

  0.007413  0.003204  0.000000
  0.003204  -0.002195  0.000000
  0.000000  0.000000  0.000000

  0.007582  0.004361  0.000000
  0.004361  -0.001754  0.000000
  0.000000  0.000000  0.000000

  0.007678  0.005441  0.000000
  0.005441  -0.001208  0.000000
  0.000000  0.000000  0.000000

  0.008959  0.008151  0.000000
  0.008151  -0.000322  0.000000
  0.000000  0.000000  0.000000

  0.010723  0.015030  0.000000
  0.015030  0.003205  0.000000
  0.000000  0.000000  0.000000

  0.051425  0.036282  0.000000
  0.036282  -0.002517  0.000000
  0.000000  0.000000  0.000000

  0.007912  0.006559  0.000000
  0.006559  -0.001025  0.000000
  0.000000  0.000000  0.000000

  -0.060369  -0.041224  0.000000
  -0.041224  0.007105  0.000000
  0.000000  0.000000  0.000000

  0.110604  -0.003051  0.000000
  -0.003051  -0.028673  0.000000
  0.000000  0.000000  0.000000

  -0.061020  -0.041340  0.000000
  -0.041340  0.008233  0.000000
  0.000000  0.000000  0.000000

  -0.072861  -0.031239  0.000000
  -0.031239  0.018687  0.000000
  0.000000  0.000000  0.000000

  0.004889  -0.004914  0.000000
  -0.004914  -0.005534  0.000000
  0.000000  0.000000  0.000000

  0.002441  -0.006785  0.000000
  -0.006785  -0.003042  0.000000
  0.000000  0.000000  0.000000

  -0.011001  -0.002778  0.000000
  -0.002778  0.009136  0.000000
  0.000000  0.000000  0.000000

  -0.052972  0.002441  0.000000
  0.002441  0.022124  0.000000
  0.000000  0.000000  0.000000

  0.006309  -0.002641  0.000000
  -0.002641  -0.006876  0.000000
  0.000000  0.000000  0.000000

  -0.011858  -0.002119  0.000000
  -0.002119  0.009446  0.000000
  0.000000  0.000000  0.000000

  -0.008516  -0.004643  0.000000
  -0.004643  0.007306  0.000000
  0.000000  0.000000  0.000000

  0.007077  -0.001782  0.000000
  -0.001782  -0.006934  0.000000
  0.000000  0.000000  0.000000

  0.000623  -0.007479  0.000000
  -0.007479  -0.001061  0.000000
  0.000000  0.000000  0.000000

  -0.004606  -0.006972  0.000000
  -0.006972  0.003963  0.000000
  0.000000  0.000000  0.000000

  -0.006069  -0.006236  0.000000
  -0.006236  0.005303  0.000000
  0.000000  0.000000  0.000000

  0.005190  -0.004531  0.000000
  -0.004531  -0.005839  0.000000
  0.000000  0.000000  0.000000

  -0.001343  -0.007626  0.000000
  -0.007626  0.000773  0.000000
  0.000000  0.000000  0.000000

  -0.009276  -0.004157  0.000000
  -0.004157  0.007880  0.000000
  0.000000  0.000000  0.000000

  -0.019119  0.000325  0.000000
  0.000325  0.012270  0.000000
  0.000000  0.000000  0.000000

  -0.002773  -0.007448  0.000000
  -0.007448  0.002165  0.000000
  0.000000  0.000000  0.000000

  0.004622  -0.005286  0.000000
  -0.005286  -0.005147  0.000000
  0.000000  0.000000  0.000000

  -0.072701  -0.007649  0.000000
  -0.007649  0.027867  0.000000
  0.000000  0.000000  0.000000

  -0.000775  -0.007618  0.000000
  -0.007618  0.000186  0.000000
  0.000000  0.000000  0.000000

  -0.012946  -0.001476  0.000000
  -0.001476  0.010145  0.000000
  0.000000  0.000000  0.000000

  0.005871  -0.003650  0.000000
  -0.003650  -0.006430  0.000000
  0.000000  0.000000  0.000000

  0.005527  -0.004136  0.000000
  -0.004136  -0.006199  0.000000
  0.000000  0.000000  0.000000

  0.007459  -0.002019  0.000000
  -0.002019  -0.006419  0.000000
  0.000000  0.000000  0.000000

  0.003493  -0.006184  0.000000
  -0.006184  -0.004231  0.000000
  0.000000  0.000000  0.000000

  0.001157  -0.007317  0.000000
  -0.007317  -0.001623  0.000000
  0.000000  0.000000  0.000000

  0.006857  -0.002017  0.000000
  -0.002017  -0.007084  0.000000
  0.000000  0.000000  0.000000

  0.006561  -0.002265  0.000000
  -0.002265  -0.006992  0.000000
  0.000000  0.000000  0.000000

  -0.003346  -0.007355  0.000000
  -0.007355  0.002823  0.000000
  0.000000  0.000000  0.000000

  -0.016056  -0.000099  0.000000
  -0.000099  0.011369  0.000000
  0.000000  0.000000  0.000000

  -0.004055  -0.007165  0.000000
  -0.007165  0.003383  0.000000
  0.000000  0.000000  0.000000

  -0.014249  -0.000765  0.000000
  -0.000765  0.010702  0.000000
  0.000000  0.000000  0.000000

  0.007220  -0.001938  0.000000
  -0.001938  -0.005513  0.000000
  0.000000  0.000000  0.000000

  0.006972  -0.000638  0.000000
  -0.000638  -0.004430  0.000000
  0.000000  0.000000  0.000000

  -0.071198  -0.028654  0.000000
  -0.028654  0.013640  0.000000
  0.000000  0.000000  0.000000

  -0.066959  -0.027992  0.000000
  -0.027992  0.017884  0.000000
  0.000000  0.000000  0.000000

  -0.072879  -0.022287  0.000000
  -0.022287  0.022029  0.000000
  0.000000  0.000000  0.000000

  0.007410  0.000714  0.000000
  0.000714  -0.003781  0.000000
  0.000000  0.000000  0.000000

  0.007784  0.001753  0.000000
  0.001753  -0.003604  0.000000
  0.000000  0.000000  0.000000

  0.007956  0.002629  0.000000
  0.002629  -0.003305  0.000000
  0.000000  0.000000  0.000000

  -0.051329  -0.033597  0.000000
  -0.033597  0.007776  0.000000
  0.000000  0.000000  0.000000

  -0.008328  0.001616  0.000000
  0.001616  0.002197  0.000000
  0.000000  0.000000  0.000000

  -0.020196  -0.005730  0.000000
  -0.005730  0.007312  0.000000
  0.000000  0.000000  0.000000

  -0.031418  -0.015174  0.000000
  -0.015174  0.008514  0.000000
  0.000000  0.000000  0.000000

  -0.041743  -0.024737  0.000000
  -0.024737  0.008359  0.000000
  0.000000  0.000000  0.000000

  0.008457  0.003718  0.000000
  0.003718  -0.003248  0.000000
  0.000000  0.000000  0.000000

  -0.063285  -0.026400  0.000000
  -0.026400  0.018682  0.000000
  0.000000  0.000000  0.000000

  -0.062854  -0.018816  0.000000
  -0.018816  0.016653  0.000000
  0.000000  0.000000  0.000000

  -0.064753  -0.019590  0.000000
  -0.019590  0.021930  0.000000
  0.000000  0.000000  0.000000

  0.080711  -0.005315  0.000000
  -0.005315  -0.007537  0.000000
  0.000000  0.000000  0.000000

  0.009078  0.004710  0.000000
  0.004710  -0.003052  0.000000
  0.000000  0.000000  0.000000

  -0.053030  -0.034977  0.000000
  -0.034977  0.007860  0.000000
  0.000000  0.000000  0.000000

  -0.064958  -0.027843  0.000000
  -0.027843  0.018931  0.000000
  0.000000  0.000000  0.000000

  -0.058074  -0.022855  0.000000
  -0.022855  0.019742  0.000000
  0.000000  0.000000  0.000000

  0.010437  0.007422  0.000000
  0.007422  -0.002690  0.000000
  0.000000  0.000000  0.000000

  0.019548  0.013710  0.000000
  0.013710  -0.003246  0.000000
  0.000000  0.000000  0.000000

  0.062881  0.023391  0.000000
  0.023391  -0.014315  0.000000
  0.000000  0.000000  0.000000

  0.009828  0.005901  0.000000
  0.005901  -0.002926  0.000000
  0.000000  0.000000  0.000000

  0.069103  -0.003122  0.000000
  -0.003122  -0.028613  0.000000
  0.000000  0.000000  0.000000

  0.072175  0.015026  0.000000
  0.015026  0.002915  0.000000
  0.000000  0.000000  0.000000

  0.011196  -0.001309  0.000000
  -0.001309  -0.003511  0.000000
  0.000000  0.000000  0.000000

  -0.000357  -0.054565  0.000000
  -0.054565  0.000000  0.000000
  0.000000  0.000000  0.000000

  -0.008274  -0.001513  0.000000
  -0.001513  0.002068  0.000000
  0.000000  0.000000  0.000000

  -0.021861  0.007988  0.000000
  0.007988  0.007425  0.000000
  0.000000  0.000000  0.000000

  0.178125  0.098294  0.000000
  0.098294  -0.024243  0.000000
  0.000000  0.000000  0.000000

  -0.175390  0.095312  0.000000
  0.095312  0.024941  0.000000
  0.000000  0.000000  0.000000

  0.067438  0.042330  0.000000
  0.042330  -0.010524  0.000000
  0.000000  0.000000  0.000000

  0.173763  -0.054183  0.000000
  -0.054183  0.000000  0.000000
  0.000000  0.000000  0.000000

  -0.173234  -0.056883  0.000000
  -0.056883  0.000000  0.000000
  0.000000  0.000000  0.000000

  -0.061736  0.037136  0.000000
  0.037136  0.010501  0.000000
  0.000000  0.000000  0.000000

  0.039431  0.019201  0.000000
  0.019201  -0.010302  0.000000
  0.000000  0.000000  0.000000

  0.522029  0.111568  0.000000
  0.111568  -0.087529  0.000000
  0.000000  0.000000  0.000000

  -0.068914  -0.054830  0.000000
  -0.054830  0.000000  0.000000
  0.000000  0.000000  0.000000

  -0.099371  0.062038  0.000000
  0.062038  0.013513  0.000000
  0.000000  0.000000  0.000000

  0.103715  0.066619  0.000000
  0.066619  -0.013014  0.000000
  0.000000  0.000000  0.000000

  0.068576  -0.053361  0.000000
  -0.053361  0.000000  0.000000
  0.000000  0.000000  0.000000

  -0.523064  0.109296  0.000000
  0.109296  0.088857  0.000000
  0.000000  0.000000  0.000000

  -0.033629  0.015523  0.000000
  0.015523  0.008803  0.000000
  0.000000  0.000000  0.000000

  0.025421  0.007711  0.000000
  0.007711  -0.008808  0.000000
  0.000000  0.000000  0.000000

  0.270034  0.118375  0.000000
  0.118375  -0.041677  0.000000
  0.000000  0.000000  0.000000

  -0.033204  -0.054813  0.000000
  -0.054813  0.000000  0.000000
  0.000000  0.000000  0.000000

  -0.128463  0.077113  0.000000
  0.077113  0.017271  0.000000
  0.000000  0.000000  0.000000

  0.083595  0.054016  0.000000
  0.054016  -0.011244  0.000000
  0.000000  0.000000  0.000000

  0.111774  -0.053041  0.000000
  -0.053041  0.000000  0.000000
  0.000000  0.000000  0.000000

  -0.282713  -0.066974  0.000000
  -0.066974  0.000000  0.000000
  0.000000  0.000000  0.000000

  -0.047055  0.025856  0.000000
  0.025856  0.009628  0.000000
  0.000000  0.000000  0.000000

  0.053155  0.030874  0.000000
  0.030874  -0.010427  0.000000
  0.000000  0.000000  0.000000

  0.283302  -0.063727  0.000000
  -0.063727  0.000000  0.000000
  0.000000  0.000000  0.000000

  -0.112160  -0.055042  0.000000
  -0.055042  0.000000  0.000000
  0.000000  0.000000  0.000000

  -0.078454  0.048931  0.000000
  0.048931  0.011480  0.000000
  0.000000  0.000000  0.000000

  0.131928  0.081085  0.000000
  0.081085  -0.016676  0.000000
  0.000000  0.000000  0.000000

  0.032631  -0.054020  0.000000
  -0.054020  0.000000  0.000000
  0.000000  0.000000  0.000000

  -0.268305  0.115234  0.000000
  0.115234  0.042046  0.000000
  0.000000  0.000000  0.000000

  -0.020626  0.006024  0.000000
  0.006024  0.007265  0.000000
  0.000000  0.000000  0.000000

  -0.032042  0.014634  0.000000
  0.014634  0.008824  0.000000
  0.000000  0.000000  0.000000

  -0.047313  0.006079  0.000000
  0.006079  0.021056  0.000000
  0.000000  0.000000  0.000000

  -0.228763  -0.012581  0.000000
  -0.012581  0.018221  0.000000
  0.000000  0.000000  0.000000

  -0.206680  -0.063703  0.000000
  -0.063703  0.019468  0.000000
  0.000000  0.000000  0.000000

  0.229320  -0.009574  0.000000
  -0.009574  -0.017234  0.000000
  0.000000  0.000000  0.000000

  0.206917  -0.060852  0.000000
  -0.060852  -0.018485  0.000000
  0.000000  0.000000  0.000000

  0.005618  -0.005033  0.000000
  -0.005033  -0.005523  0.000000
  0.000000  0.000000  0.000000

  0.005461  -0.005325  0.000000
  -0.005325  -0.005955  0.000000
  0.000000  0.000000  0.000000

  0.006136  -0.005393  0.000000
  -0.005393  -0.005985  0.000000
  0.000000  0.000000  0.000000

  0.005775  -0.005828  0.000000
  -0.005828  -0.005608  0.000000
  0.000000  0.000000  0.000000

  0.000796  -0.007635  0.000000
  -0.007635  -0.001480  0.000000
  0.000000  0.000000  0.000000

  0.001032  -0.007916  0.000000
  -0.007916  -0.001514  0.000000
  0.000000  0.000000  0.000000

  0.001310  -0.008038  0.000000
  -0.008038  -0.001958  0.000000
  0.000000  0.000000  0.000000

  0.000734  -0.008222  0.000000
  -0.008222  -0.001258  0.000000
  0.000000  0.000000  0.000000

  0.005193  -0.005402  0.000000
  -0.005402  -0.005152  0.000000
  0.000000  0.000000  0.000000

  0.004979  -0.005722  0.000000
  -0.005722  -0.005622  0.000000
  0.000000  0.000000  0.000000

  0.005204  -0.006073  0.000000
  -0.006073  -0.005087  0.000000
  0.000000  0.000000  0.000000

  0.004855  -0.006504  0.000000
  -0.006504  -0.005437  0.000000
  0.000000  0.000000  0.000000

  0.004620  -0.005797  0.000000
  -0.005797  -0.004977  0.000000
  0.000000  0.000000  0.000000

  0.001478  -0.007444  0.000000
  -0.007444  -0.002058  0.000000
  0.000000  0.000000  0.000000

  0.007649  -0.002733  0.000000
  -0.002733  -0.006941  0.000000
  0.000000  0.000000  0.000000

  0.007404  -0.003163  0.000000
  -0.003163  -0.007452  0.000000
  0.000000  0.000000  0.000000

  0.008690  -0.003336  0.000000
  -0.003336  -0.007502  0.000000
  0.000000  0.000000  0.000000

  0.008125  -0.003621  0.000000
  -0.003621  -0.007278  0.000000
  0.000000  0.000000  0.000000

  -0.001124  -0.007892  0.000000
  -0.007892  0.000314  0.000000
  0.000000  0.000000  0.000000

  -0.000971  -0.008209  0.000000
  -0.008209  0.000443  0.000000
  0.000000  0.000000  0.000000

  -0.000834  -0.008417  0.000000
  -0.008417  -0.000132  0.000000
  0.000000  0.000000  0.000000

  -0.001462  -0.008449  0.000000
  -0.008449  0.000627  0.000000
  0.000000  0.000000  0.000000

  0.006714  -0.003735  0.000000
  -0.003735  -0.006422  0.000000
  0.000000  0.000000  0.000000

  -0.017130  -0.000542  0.000000
  -0.000542  0.011187  0.000000
  0.000000  0.000000  0.000000

  -0.017745  -0.002441  0.000000
  -0.002441  0.012396  0.000000
  0.000000  0.000000  0.000000

  -0.017549  -0.002748  0.000000
  -0.002748  0.012187  0.000000
  0.000000  0.000000  0.000000

  -0.020981  -0.002076  0.000000
  -0.002076  0.013449  0.000000
  0.000000  0.000000  0.000000

  -0.012109  -0.003494  0.000000
  -0.003494  0.008716  0.000000
  0.000000  0.000000  0.000000

  -0.006331  -0.006820  0.000000
  -0.006820  0.004640  0.000000
  0.000000  0.000000  0.000000

  -0.000493  -0.007839  0.000000
  -0.007839  -0.000274  0.000000
  0.000000  0.000000  0.000000

  0.007979  -0.002353  0.000000
  -0.002353  -0.007125  0.000000
  0.000000  0.000000  0.000000

  0.007793  -0.002752  0.000000
  -0.002752  -0.007589  0.000000
  0.000000  0.000000  0.000000

  0.008958  -0.002956  0.000000
  -0.002956  -0.007581  0.000000
  0.000000  0.000000  0.000000

  0.008264  -0.002053  0.000000
  -0.002053  -0.007266  0.000000
  0.000000  0.000000  0.000000

  -0.009217  -0.005271  0.000000
  -0.005271  0.006789  0.000000
  0.000000  0.000000  0.000000

  -0.019050  0.000132  0.000000
  0.000132  0.012154  0.000000
  0.000000  0.000000  0.000000

  -0.019388  -0.001357  0.000000
  -0.001357  0.013771  0.000000
  0.000000  0.000000  0.000000

  -0.024714  -0.001016  0.000000
  -0.001016  0.014429  0.000000
  0.000000  0.000000  0.000000

  -0.025367  -0.005339  0.000000
  -0.005339  0.015859  0.000000
  0.000000  0.000000  0.000000

  -0.020732  0.000355  0.000000
  0.000355  0.014407  0.000000
  0.000000  0.000000  0.000000

  0.008480  -0.001360  0.000000
  -0.001360  -0.006006  0.000000
  0.000000  0.000000  0.000000

  0.008428  -0.002334  0.000000
  -0.002334  -0.006745  0.000000
  0.000000  0.000000  0.000000

  0.009730  -0.001646  0.000000
  -0.001646  -0.006390  0.000000
  0.000000  0.000000  0.000000

  0.009267  -0.002190  0.000000
  -0.002190  -0.007110  0.000000
  0.000000  0.000000  0.000000

  -0.015583  -0.001334  0.000000
  -0.001334  0.010462  0.000000
  0.000000  0.000000  0.000000

  -0.015881  -0.003282  0.000000
  -0.003282  0.010949  0.000000
  0.000000  0.000000  0.000000

  -0.014452  -0.003256  0.000000
  -0.003256  0.010942  0.000000
  0.000000  0.000000  0.000000

  -0.014455  -0.002208  0.000000
  -0.002208  0.009799  0.000000
  0.000000  0.000000  0.000000

  0.002906  -0.006870  0.000000
  -0.006870  -0.003211  0.000000
  0.000000  0.000000  0.000000

  -0.004716  -0.007438  0.000000
  -0.007438  0.003323  0.000000
  0.000000  0.000000  0.000000

  -0.004358  -0.007830  0.000000
  -0.007830  0.003709  0.000000
  0.000000  0.000000  0.000000

  -0.004500  -0.008277  0.000000
  -0.008277  0.002975  0.000000
  0.000000  0.000000  0.000000

  -0.005227  -0.008028  0.000000
  -0.008028  0.003737  0.000000
  0.000000  0.000000  0.000000

  -0.045469  -0.005475  0.000000
  -0.005475  0.026284  0.000000
  0.000000  0.000000  0.000000

  -0.054284  -0.012612  0.000000
  -0.012612  0.023638  0.000000
  0.000000  0.000000  0.000000

  -0.039987  -0.011428  0.000000
  -0.011428  0.022849  0.000000
  0.000000  0.000000  0.000000

  -0.043546  -0.021430  0.000000
  -0.021430  0.019838  0.000000
  0.000000  0.000000  0.000000

  -0.013381  -0.002795  0.000000
  -0.002795  0.009246  0.000000
  0.000000  0.000000  0.000000

  -0.013193  -0.004021  0.000000
  -0.004021  0.010379  0.000000
  0.000000  0.000000  0.000000

  -0.013598  -0.004589  0.000000
  -0.004589  0.009849  0.000000
  0.000000  0.000000  0.000000

  -0.015647  -0.003981  0.000000
  -0.003981  0.010726  0.000000
  0.000000  0.000000  0.000000

  -0.010210  -0.004827  0.000000
  -0.004827  0.007408  0.000000
  0.000000  0.000000  0.000000

  -0.009685  -0.005654  0.000000
  -0.005654  0.008004  0.000000
  0.000000  0.000000  0.000000

  -0.010189  -0.006152  0.000000
  -0.006152  0.007513  0.000000
  0.000000  0.000000  0.000000

  -0.011372  -0.005791  0.000000
  -0.005791  0.008050  0.000000
  0.000000  0.000000  0.000000

  0.006369  -0.004235  0.000000
  -0.004235  -0.006191  0.000000
  0.000000  0.000000  0.000000

  0.006151  -0.004565  0.000000
  -0.004565  -0.006523  0.000000
  0.000000  0.000000  0.000000

  0.006095  -0.004753  0.000000
  -0.004753  -0.006188  0.000000
  0.000000  0.000000  0.000000

  0.005817  -0.004617  0.000000
  -0.004617  -0.005837  0.000000
  0.000000  0.000000  0.000000

  -0.004093  -0.007603  0.000000
  -0.007603  0.002799  0.000000
  0.000000  0.000000  0.000000

  -0.003620  -0.007969  0.000000
  -0.007969  0.003054  0.000000
  0.000000  0.000000  0.000000

  -0.003441  -0.007936  0.000000
  -0.007936  0.002463  0.000000
  0.000000  0.000000  0.000000

  -0.003263  -0.007631  0.000000
  -0.007631  0.002319  0.000000
  0.000000  0.000000  0.000000

  -0.036008  0.002558  0.000000
  0.002558  0.021937  0.000000
  0.000000  0.000000  0.000000

  0.008274  -0.001560  0.000000
  -0.001560  -0.006998  0.000000
  0.000000  0.000000  0.000000

  0.008570  -0.002501  0.000000
  -0.002501  -0.007213  0.000000
  0.000000  0.000000  0.000000

  0.008143  -0.002207  0.000000
  -0.002207  -0.007334  0.000000
  0.000000  0.000000  0.000000

  -0.002648  -0.007785  0.000000
  -0.007785  0.001620  0.000000
  0.000000  0.000000  0.000000

  0.004236  -0.006307  0.000000
  -0.006307  -0.004288  0.000000
  0.000000  0.000000  0.000000

  0.000193  -0.007718  0.000000
  -0.007718  -0.000860  0.000000
  0.000000  0.000000  0.000000

  0.007139  -0.003192  0.000000
  -0.003192  -0.006711  0.000000
  0.000000  0.000000  0.000000

  -0.001854  -0.007832  0.000000
  -0.007832  0.000987  0.000000
  0.000000  0.000000  0.000000

  -0.007199  -0.006428  0.000000
  -0.006428  0.005277  0.000000
  0.000000  0.000000  0.000000

  0.002274  -0.007199  0.000000
  -0.007199  -0.002625  0.000000
  0.000000  0.000000  0.000000

  -0.005434  -0.007131  0.000000
  -0.007131  0.003993  0.000000
  0.000000  0.000000  0.000000

  -0.053210  -0.021281  0.000000
  -0.021281  0.019508  0.000000
  0.000000  0.000000  0.000000

  -0.011074  -0.004194  0.000000
  -0.004194  0.008105  0.000000
  0.000000  0.000000  0.000000

  0.003494  -0.006552  0.000000
  -0.006552  -0.003710  0.000000
  0.000000  0.000000  0.000000

  0.008268  -0.000809  0.000000
  -0.000809  -0.004484  0.000000
  0.000000  0.000000  0.000000

  0.008057  -0.001502  0.000000
  -0.001502  -0.005652  0.000000
  0.000000  0.000000  0.000000

  0.008739  -0.000632  0.000000
  -0.000632  -0.005177  0.000000
  0.000000  0.000000  0.000000

  0.007844  0.000207  0.000000
  0.000207  -0.003610  0.000000
  0.000000  0.000000  0.000000

  -0.042970  0.005877  0.000000
  0.005877  0.021065  0.000000
  0.000000  0.000000  0.000000

  -0.054274  0.011203  0.000000
  0.011203  0.024186  0.000000
  0.000000  0.000000  0.000000

  0.008511  0.001352  0.000000
  0.001352  -0.003530  0.000000
  0.000000  0.000000  0.000000

  0.008971  0.000472  0.000000
  0.000472  -0.005352  0.000000
  0.000000  0.000000  0.000000

  0.010444  0.001368  0.000000
  0.001368  -0.004862  0.000000
  0.000000  0.000000  0.000000

  0.009362  -0.000053  0.000000
  -0.000053  -0.005104  0.000000
  0.000000  0.000000  0.000000

  -0.066348  -0.019291  0.000000
  -0.019291  0.028032  0.000000
  0.000000  0.000000  0.000000

  -0.057515  -0.022163  0.000000
  -0.022163  0.019961  0.000000
  0.000000  0.000000  0.000000

  -0.053741  -0.018346  0.000000
  -0.018346  0.020615  0.000000
  0.000000  0.000000  0.000000

  -0.046183  -0.028519  0.000000
  -0.028519  0.007984  0.000000
  0.000000  0.000000  0.000000

  -0.062337  -0.014084  0.000000
  -0.014084  0.029185  0.000000
  0.000000  0.000000  0.000000

  -0.050627  -0.014479  0.000000
  -0.014479  0.020271  0.000000
  0.000000  0.000000  0.000000

  -0.047844  -0.013112  0.000000
  -0.013112  0.020498  0.000000
  0.000000  0.000000  0.000000

  -0.038827  -0.021300  0.000000
  -0.021300  0.008500  0.000000
  0.000000  0.000000  0.000000

  -0.057123  -0.008074  0.000000
  -0.008074  0.029423  0.000000
  0.000000  0.000000  0.000000

  -0.043080  -0.006880  0.000000
  -0.006880  0.019874  0.000000
  0.000000  0.000000  0.000000

  -0.042986  -0.007322  0.000000
  -0.007322  0.019792  0.000000
  0.000000  0.000000  0.000000

  -0.050419  -0.001877  0.000000
  -0.001877  0.027154  0.000000
  0.000000  0.000000  0.000000

  -0.030878  -0.014180  0.000000
  -0.014180  0.008554  0.000000
  0.000000  0.000000  0.000000

  -0.033276  0.000168  0.000000
  0.000168  0.015998  0.000000
  0.000000  0.000000  0.000000

  -0.059827  -0.006949  0.000000
  -0.006949  0.029503  0.000000
  0.000000  0.000000  0.000000

  -0.064234  -0.004803  0.000000
  -0.004803  0.035964  0.000000
  0.000000  0.000000  0.000000

  -0.034945  -0.001107  0.000000
  -0.001107  0.016088  0.000000
  0.000000  0.000000  0.000000

  -0.055437  -0.001702  0.000000
  -0.001702  0.027173  0.000000
  0.000000  0.000000  0.000000

  -0.060461  0.001769  0.000000
  0.001769  0.032738  0.000000
  0.000000  0.000000  0.000000

  -0.021357  -0.007625  0.000000
  -0.007625  0.007234  0.000000
  0.000000  0.000000  0.000000

  -0.071010  -0.009359  0.000000
  -0.009359  0.036525  0.000000
  0.000000  0.000000  0.000000

  -0.070492  -0.004106  0.000000
  -0.004106  0.036083  0.000000
  0.000000  0.000000  0.000000

  -0.071871  -0.004114  0.000000
  -0.004114  0.040944  0.000000
  0.000000  0.000000  0.000000

  -0.078997  -0.008814  0.000000
  -0.008814  0.041367  0.000000
  0.000000  0.000000  0.000000

  -0.079717  -0.002746  0.000000
  -0.002746  0.041078  0.000000
  0.000000  0.000000  0.000000

  -0.066971  0.002898  0.000000
  0.002898  0.032726  0.000000
  0.000000  0.000000  0.000000

  -0.070524  0.005227  0.000000
  0.005227  0.036108  0.000000
  0.000000  0.000000  0.000000

  -0.078210  0.007416  0.000000
  0.007416  0.036218  0.000000
  0.000000  0.000000  0.000000

  -0.079645  0.007833  0.000000
  0.007833  0.039317  0.000000
  0.000000  0.000000  0.000000

  -0.065509  0.017673  0.000000
  0.017673  0.026105  0.000000
  0.000000  0.000000  0.000000

  -0.072971  0.020913  0.000000
  0.020913  0.026404  0.000000
  0.000000  0.000000  0.000000

  -0.076040  0.022911  0.000000
  0.022911  0.028790  0.000000
  0.000000  0.000000  0.000000

  -0.054800  0.032092  0.000000
  0.032092  0.010618  0.000000
  0.000000  0.000000  0.000000

  -0.059245  0.013112  0.000000
  0.013112  0.024214  0.000000
  0.000000  0.000000  0.000000

  -0.042900  0.023076  0.000000
  0.023076  0.009692  0.000000
  0.000000  0.000000  0.000000

  -0.093603  0.012234  0.000000
  0.012234  0.039276  0.000000
  0.000000  0.000000  0.000000

  -0.091407  0.008964  0.000000
  0.008964  0.043974  0.000000
  0.000000  0.000000  0.000000

  -0.089407  0.028554  0.000000
  0.028554  0.029144  0.000000
  0.000000  0.000000  0.000000

  -0.091137  0.028940  0.000000
  0.028940  0.032551  0.000000
  0.000000  0.000000  0.000000

  -0.067977  0.042059  0.000000
  0.042059  0.011640  0.000000
  0.000000  0.000000  0.000000

  0.009023  0.002556  0.000000
  0.002556  -0.003303  0.000000
  0.000000  0.000000  0.000000

  0.009136  0.001686  0.000000
  0.001686  -0.004905  0.000000
  0.000000  0.000000  0.000000

  0.010567  0.002499  0.000000
  0.002499  -0.004448  0.000000
  0.000000  0.000000  0.000000

  0.008848  0.003350  0.000000
  0.003350  -0.003291  0.000000
  0.000000  0.000000  0.000000

  -0.110950  0.015039  0.000000
  0.015039  0.044080  0.000000
  0.000000  0.000000  0.000000

  -0.105361  0.008835  0.000000
  0.008835  0.048992  0.000000
  0.000000  0.000000  0.000000

  -0.109969  0.036287  0.000000
  0.036287  0.033235  0.000000
  0.000000  0.000000  0.000000

  -0.109071  0.034048  0.000000
  0.034048  0.038098  0.000000
  0.000000  0.000000  0.000000

  -0.084118  0.053041  0.000000
  0.053041  0.013723  0.000000
  0.000000  0.000000  0.000000

  -0.132763  0.016127  0.000000
  0.016127  0.049205  0.000000
  0.000000  0.000000  0.000000

  -0.137391  0.043065  0.000000
  0.043065  0.039303  0.000000
  0.000000  0.000000  0.000000

  -0.131917  0.036423  0.000000
  0.036423  0.046656  0.000000
  0.000000  0.000000  0.000000

  -0.104563  0.065219  0.000000
  0.065219  0.017546  0.000000
  0.000000  0.000000  0.000000

  -0.160247  0.013823  0.000000
  0.013823  0.055762  0.000000
  0.000000  0.000000  0.000000

  -0.176169  0.046862  0.000000
  0.046862  0.048467  0.000000
  0.000000  0.000000  0.000000

  -0.161005  0.031530  0.000000
  0.031530  0.059398  0.000000
  0.000000  0.000000  0.000000

  -0.132429  0.078064  0.000000
  0.078064  0.025340  0.000000
  0.000000  0.000000  0.000000

  -0.192457  0.004549  0.000000
  0.004549  0.062162  0.000000
  0.000000  0.000000  0.000000

  -0.232809  0.042577  0.000000
  0.042577  0.061785  0.000000
  0.000000  0.000000  0.000000

  -0.193525  0.008055  0.000000
  0.008055  0.074223  0.000000
  0.000000  0.000000  0.000000

  -0.220036  -0.016824  0.000000
  -0.016824  0.061719  0.000000
  0.000000  0.000000  0.000000

  -0.307275  0.015888  0.000000
  0.015888  0.073851  0.000000
  0.000000  0.000000  0.000000

  -0.173473  0.088442  0.000000
  0.088442  0.042662  0.000000
  0.000000  0.000000  0.000000

  -0.156475  -0.025608  0.000000
  -0.025608  0.062849  0.000000
  0.000000  0.000000  0.000000

  -0.166309  -0.036002  0.000000
  -0.036002  0.055605  0.000000
  0.000000  0.000000  0.000000

  -0.157094  -0.060591  0.000000
  -0.060591  0.033737  0.000000
  0.000000  0.000000  0.000000

  -0.240818  0.077973  0.000000
  0.077973  0.089555  0.000000
  0.000000  0.000000  0.000000

  -0.129545  -0.043979  0.000000
  -0.043979  0.056530  0.000000
  0.000000  0.000000  0.000000

  -0.124431  -0.063867  0.000000
  -0.063867  0.038672  0.000000
  0.000000  0.000000  0.000000

  -0.121587  0.004936  0.000000
  0.004936  0.055705  0.000000
  0.000000  0.000000  0.000000

  -0.137907  -0.009080  0.000000
  -0.009080  0.056757  0.000000
  0.000000  0.000000  0.000000

  -0.066384  -0.019284  0.000000
  -0.019284  0.026597  0.000000
  0.000000  0.000000  0.000000

  0.005826  -0.006644  0.000000
  -0.006644  -0.005419  0.000000
  0.000000  0.000000  0.000000

  -0.075679  -0.021491  0.000000
  -0.021491  0.018361  0.000000
  0.000000  0.000000  0.000000

  -0.024106  -0.005517  0.000000
  -0.005517  0.015433  0.000000
  0.000000  0.000000  0.000000

  0.184657  -0.036911  0.000000
  -0.036911  -0.033616  0.000000
  0.000000  0.000000  0.000000

  0.005006  -0.006831  0.000000
  -0.006831  -0.004749  0.000000
  0.000000  0.000000  0.000000

  -0.069717  -0.022663  0.000000
  -0.022663  0.026241  0.000000
  0.000000  0.000000  0.000000

  -0.065680  -0.018986  0.000000
  -0.018986  0.026174  0.000000
  0.000000  0.000000  0.000000

  -0.185385  -0.040476  0.000000
  -0.040476  0.035090  0.000000
  0.000000  0.000000  0.000000

  -0.135497  -0.071688  0.000000
  -0.071688  0.003278  0.000000
  0.000000  0.000000  0.000000

  -0.117127  -0.052014  0.000000
  -0.052014  0.015467  0.000000
  0.000000  0.000000  0.000000

  -0.142696  -0.028784  0.000000
  -0.028784  0.003278  0.000000
  0.000000  0.000000  0.000000

  -0.109652  -0.076656  0.000000
  -0.076656  0.016112  0.000000
  0.000000  0.000000  0.000000

  -0.149230  -0.051922  0.000000
  -0.051922  0.039971  0.000000
  0.000000  0.000000  0.000000

  -0.094287  -0.062221  0.000000
  -0.062221  0.022257  0.000000
  0.000000  0.000000  0.000000

  -0.090452  -0.080038  0.000000
  -0.080038  0.024176  0.000000
  0.000000  0.000000  0.000000

  -0.068376  -0.080287  0.000000
  -0.080287  0.007757  0.000000
  0.000000  0.000000  0.000000

  -0.087271  -0.071510  0.000000
  -0.071510  0.000378  0.000000
  0.000000  0.000000  0.000000

  -0.071760  -0.055017  0.000000
  -0.055017  0.008260  0.000000
  0.000000  0.000000  0.000000

  -0.090537  -0.035691  0.000000
  -0.035691  0.000378  0.000000
  0.000000  0.000000  0.000000

  -0.029326  -0.005493  0.000000
  -0.005493  0.017740  0.000000
  0.000000  0.000000  0.000000

  -0.063886  -0.018010  0.000000
  -0.018010  0.019867  0.000000
  0.000000  0.000000  0.000000

  0.306904  0.018694  0.000000
  0.018694  -0.070908  0.000000
  0.000000  0.000000  0.000000

  0.194307  0.009682  0.000000
  0.009682  -0.071353  0.000000
  0.000000  0.000000  0.000000

  0.241392  0.080426  0.000000
  0.080426  -0.088224  0.000000
  0.000000  0.000000  0.000000

  0.217055  -0.012891  0.000000
  -0.012891  -0.060130  0.000000
  0.000000  0.000000  0.000000

  0.229952  0.048022  0.000000
  0.048022  -0.057800  0.000000
  0.000000  0.000000  0.000000

  0.160101  0.033455  0.000000
  0.033455  -0.058854  0.000000
  0.000000  0.000000  0.000000

  0.175490  0.090715  0.000000
  0.090715  -0.042313  0.000000
  0.000000  0.000000  0.000000

  0.188222  0.009676  0.000000
  0.009676  -0.058511  0.000000
  0.000000  0.000000  0.000000

  0.175431  0.052448  0.000000
  0.052448  -0.045143  0.000000
  0.000000  0.000000  0.000000

  0.131750  0.039266  0.000000
  0.039266  -0.046240  0.000000
  0.000000  0.000000  0.000000

  0.135132  0.081426  0.000000
  0.081426  -0.024633  0.000000
  0.000000  0.000000  0.000000

  0.156834  0.019682  0.000000
  0.019682  -0.051807  0.000000
  0.000000  0.000000  0.000000

  0.138263  0.048479  0.000000
  0.048479  -0.036298  0.000000
  0.000000  0.000000  0.000000

  0.109805  0.037917  0.000000
  0.037917  -0.037237  0.000000
  0.000000  0.000000  0.000000

  0.108024  0.069084  0.000000
  0.069084  -0.016954  0.000000
  0.000000  0.000000  0.000000

  0.131189  0.022266  0.000000
  0.022266  -0.046004  0.000000
  0.000000  0.000000  0.000000

  0.112144  0.041895  0.000000
  0.041895  -0.030936  0.000000
  0.000000  0.000000  0.000000

  0.092993  0.033522  0.000000
  0.033522  -0.031708  0.000000
  0.000000  0.000000  0.000000

  0.088322  0.057413  0.000000
  0.057413  -0.013229  0.000000
  0.000000  0.000000  0.000000

  0.110952  0.020976  0.000000
  0.020976  -0.041457  0.000000
  0.000000  0.000000  0.000000

  0.092845  0.034256  0.000000
  0.034256  -0.027811  0.000000
  0.000000  0.000000  0.000000

  0.079860  0.028141  0.000000
  0.028141  -0.028385  0.000000
  0.000000  0.000000  0.000000

  0.072973  0.046733  0.000000
  0.046733  -0.011414  0.000000
  0.000000  0.000000  0.000000

  0.095133  0.017935  0.000000
  0.017935  -0.038491  0.000000
  0.000000  0.000000  0.000000

  0.077790  0.026327  0.000000
  0.026327  -0.026380  0.000000
  0.000000  0.000000  0.000000

  0.069664  0.022423  0.000000
  0.022423  -0.026749  0.000000
  0.000000  0.000000  0.000000

  0.060359  0.036881  0.000000
  0.036881  -0.010651  0.000000
  0.000000  0.000000  0.000000

  0.082736  0.014118  0.000000
  0.014118  -0.036997  0.000000
  0.000000  0.000000  0.000000

  0.065393  0.017955  0.000000
  0.017955  -0.025686  0.000000
  0.000000  0.000000  0.000000

  0.061071  0.016362  0.000000
  0.016362  -0.025835  0.000000
  0.000000  0.000000  0.000000

  0.049330  0.027484  0.000000
  0.027484  -0.010506  0.000000
  0.000000  0.000000  0.000000

  0.072786  0.009086  0.000000
  0.009086  -0.035680  0.000000
  0.000000  0.000000  0.000000

  0.054117  0.009067  0.000000
  0.009067  -0.024093  0.000000
  0.000000  0.000000  0.000000

  0.052140  0.009839  0.000000
  0.009839  -0.024010  0.000000
  0.000000  0.000000  0.000000

  0.038690  0.018450  0.000000
  0.018450  -0.010319  0.000000
  0.000000  0.000000  0.000000

  0.063786  0.002390  0.000000
  0.002390  -0.033082  0.000000
  0.000000  0.000000  0.000000

  0.042121  -0.000127  0.000000
  -0.000127  -0.019006  0.000000
  0.000000  0.000000  0.000000

  0.039767  0.002326  0.000000
  0.002326  -0.018755  0.000000
  0.000000  0.000000  0.000000

  0.026734  0.010237  0.000000
  0.010237  -0.008749  0.000000
  0.000000  0.000000  0.000000

  0.051600  -0.005504  0.000000
  -0.005504  -0.027101  0.000000
  0.000000  0.000000  0.000000

  0.027585  -0.009500  0.000000
  -0.009500  -0.011327  0.000000
  0.000000  0.000000  0.000000

  0.038277  -0.007423  0.000000
  -0.007423  -0.011421  0.000000
  0.000000  0.000000  0.000000

  0.009738  0.004742  0.000000
  0.004742  -0.003056  0.000000
  0.000000  0.000000  0.000000

  0.011151  0.003788  0.000000
  0.003788  -0.005110  0.000000
  0.000000  0.000000  0.000000

  0.013067  0.005042  0.000000
  0.005042  -0.005171  0.000000
  0.000000  0.000000  0.000000

  0.010969  0.003161  0.000000
  0.003161  -0.005082  0.000000
  0.000000  0.000000  0.000000

  0.009589  -0.002477  0.000000
  -0.002477  -0.007173  0.000000
  0.000000  0.000000  0.000000

  -0.071494  -0.010059  0.000000
  -0.010059  0.041563  0.000000
  0.000000  0.000000  0.000000

  -0.074994  -0.013458  0.000000
  -0.013458  0.038857  0.000000
  0.000000  0.000000  0.000000

  -0.069865  -0.014437  0.000000
  -0.014437  0.039022  0.000000
  0.000000  0.000000  0.000000

  -0.073218  -0.016370  0.000000
  -0.016370  0.043254  0.000000
  0.000000  0.000000  0.000000

  0.009326  -0.003036  0.000000
  -0.003036  -0.007546  0.000000
  0.000000  0.000000  0.000000

  -0.065342  -0.010656  0.000000
  -0.010656  0.036747  0.000000
  0.000000  0.000000  0.000000

  -0.069784  -0.014711  0.000000
  -0.014711  0.033184  0.000000
  0.000000  0.000000  0.000000

  -0.062725  -0.012999  0.000000
  -0.012999  0.029197  0.000000
  0.000000  0.000000  0.000000

  -0.062982  -0.014796  0.000000
  -0.014796  0.030463  0.000000
  0.000000  0.000000  0.000000

  -0.003849  -0.008717  0.000000
  -0.008717  0.003251  0.000000
  0.000000  0.000000  0.000000

  -0.105320  -0.000977  0.000000
  -0.000977  0.048561  0.000000
  0.000000  0.000000  0.000000

  -0.055714  -0.023390  0.000000
  -0.023390  0.019873  0.000000
  0.000000  0.000000  0.000000

  -0.042647  -0.032236  0.000000
  -0.032236  0.009706  0.000000
  0.000000  0.000000  0.000000

  -0.039769  -0.029207  0.000000
  -0.029207  0.012566  0.000000
  0.000000  0.000000  0.000000

  -0.045403  -0.029541  0.000000
  -0.029541  0.009266  0.000000
  0.000000  0.000000  0.000000

  -0.077143  -0.011895  0.000000
  -0.011895  0.046007  0.000000
  0.000000  0.000000  0.000000

  0.000293  -0.008090  0.000000
  -0.008090  -0.000886  0.000000
  0.000000  0.000000  0.000000

  -0.000127  -0.008351  0.000000
  -0.008351  -0.000649  0.000000
  0.000000  0.000000  0.000000

  0.000100  -0.008639  0.000000
  -0.008639  -0.000606  0.000000
  0.000000  0.000000  0.000000

  -0.000272  -0.008166  0.000000
  -0.008166  -0.000149  0.000000
  0.000000  0.000000  0.000000

  0.000403  -0.009010  0.000000
  -0.009010  -0.000939  0.000000
  0.000000  0.000000  0.000000

  -0.000493  -0.008778  0.000000
  -0.008778  0.000039  0.000000
  0.000000  0.000000  0.000000

  -0.005198  -0.007519  0.000000
  -0.007519  0.004454  0.000000
  0.000000  0.000000  0.000000

  -0.006143  -0.007662  0.000000
  -0.007662  0.004461  0.000000
  0.000000  0.000000  0.000000

  -0.009650  -0.007090  0.000000
  -0.007090  0.007884  0.000000
  0.000000  0.000000  0.000000

  0.006204  -0.005651  0.000000
  -0.005651  -0.006495  0.000000
  0.000000  0.000000  0.000000

  0.007823  -0.004171  0.000000
  -0.004171  -0.007624  0.000000
  0.000000  0.000000  0.000000

  -0.021668  -0.005494  0.000000
  -0.005494  0.014138  0.000000
  0.000000  0.000000  0.000000

  -0.013517  -0.006192  0.000000
  -0.006192  0.010215  0.000000
  0.000000  0.000000  0.000000

  0.001705  -0.008357  0.000000
  -0.008357  -0.001962  0.000000
  0.000000  0.000000  0.000000

  -0.001394  -0.008832  0.000000
  -0.008832  0.000747  0.000000
  0.000000  0.000000  0.000000

  -0.043337  -0.014091  0.000000
  -0.014091  0.021095  0.000000
  0.000000  0.000000  0.000000

  -0.010543  -0.005058  0.000000
  -0.005058  0.008580  0.000000
  0.000000  0.000000  0.000000

  -0.012196  -0.004986  0.000000
  -0.004986  0.008899  0.000000
  0.000000  0.000000  0.000000

  -0.013360  -0.006592  0.000000
  -0.006592  0.009673  0.000000
  0.000000  0.000000  0.000000

  -0.011918  -0.004598  0.000000
  -0.004598  0.009282  0.000000
  0.000000  0.000000  0.000000

  0.008444  -0.003799  0.000000
  -0.003799  -0.007839  0.000000
  0.000000  0.000000  0.000000

  -0.018551  -0.005512  0.000000
  -0.005512  0.012545  0.000000
  0.000000  0.000000  0.000000

  0.001730  -0.007739  0.000000
  -0.007739  -0.002100  0.000000
  0.000000  0.000000  0.000000

  0.001952  -0.007763  0.000000
  -0.007763  -0.002615  0.000000
  0.000000  0.000000  0.000000

  0.002349  -0.007492  0.000000
  -0.007492  -0.002818  0.000000
  0.000000  0.000000  0.000000

  0.002759  -0.007575  0.000000
  -0.007575  -0.002986  0.000000
  0.000000  0.000000  0.000000

  0.003039  -0.007191  0.000000
  -0.007191  -0.003392  0.000000
  0.000000  0.000000  0.000000

  0.002533  -0.007911  0.000000
  -0.007911  -0.003253  0.000000
  0.000000  0.000000  0.000000

  0.003328  -0.007196  0.000000
  -0.007196  -0.003645  0.000000
  0.000000  0.000000  0.000000

  0.002568  -0.008055  0.000000
  -0.008055  -0.002655  0.000000
  0.000000  0.000000  0.000000

  0.003292  -0.007994  0.000000
  -0.007994  -0.003337  0.000000
  0.000000  0.000000  0.000000

  0.003526  -0.006892  0.000000
  -0.006892  -0.004091  0.000000
  0.000000  0.000000  0.000000

  0.004252  -0.007009  0.000000
  -0.007009  -0.004187  0.000000
  0.000000  0.000000  0.000000

  0.003579  -0.007480  0.000000
  -0.007480  -0.003857  0.000000
  0.000000  0.000000  0.000000

  -0.046179  -0.004982  0.000000
  -0.004982  0.021212  0.000000
  0.000000  0.000000  0.000000

  -0.035187  -0.004118  0.000000
  -0.004118  0.021263  0.000000
  0.000000  0.000000  0.000000

  -0.010669  -0.006571  0.000000
  -0.006571  0.008698  0.000000
  0.000000  0.000000  0.000000

  0.005532  -0.006118  0.000000
  -0.006118  -0.005951  0.000000
  0.000000  0.000000  0.000000

  0.006917  -0.003564  0.000000
  -0.003564  -0.007161  0.000000
  0.000000  0.000000  0.000000

  0.007552  -0.004109  0.000000
  -0.004109  -0.006918  0.000000
  0.000000  0.000000  0.000000

  -0.004882  -0.008413  0.000000
  -0.008413  0.004095  0.000000
  0.000000  0.000000  0.000000

  -0.008740  -0.006007  0.000000
  -0.006007  0.007335  0.000000
  0.000000  0.000000  0.000000

  -0.009056  -0.006473  0.000000
  -0.006473  0.006691  0.000000
  0.000000  0.000000  0.000000

  -0.007706  -0.006419  0.000000
  -0.006419  0.006577  0.000000
  0.000000  0.000000  0.000000

  -0.008505  -0.007275  0.000000
  -0.007275  0.007018  0.000000
  0.000000  0.000000  0.000000

  -0.007945  -0.007031  0.000000
  -0.007031  0.005842  0.000000
  0.000000  0.000000  0.000000

  -0.001765  -0.008200  0.000000
  -0.008200  0.001159  0.000000
  0.000000  0.000000  0.000000

  -0.002341  -0.008377  0.000000
  -0.008377  0.001316  0.000000
  0.000000  0.000000  0.000000

  -0.045220  -0.023150  0.000000
  -0.023150  0.018584  0.000000
  0.000000  0.000000  0.000000

  -0.079987  -0.003659  0.000000
  -0.003659  0.044775  0.000000
  0.000000  0.000000  0.000000

  0.063171  0.003145  0.000000
  0.003145  -0.000523  0.000000
  0.000000  0.000000  0.000000

  -0.005735  -0.008078  0.000000
  -0.008078  0.004883  0.000000
  0.000000  0.000000  0.000000

  0.007267  -0.004500  0.000000
  -0.004500  -0.007335  0.000000
  0.000000  0.000000  0.000000

  -0.002129  -0.008767  0.000000
  -0.008767  0.001554  0.000000
  0.000000  0.000000  0.000000

  0.010740  0.006244  0.000000
  0.006244  -0.002847  0.000000
  0.000000  0.000000  0.000000

  0.011624  0.005286  0.000000
  0.005286  -0.005152  0.000000
  0.000000  0.000000  0.000000

  0.014493  0.006444  0.000000
  0.006444  -0.004733  0.000000
  0.000000  0.000000  0.000000

  0.010766  0.007190  0.000000
  0.007190  -0.002782  0.000000
  0.000000  0.000000  0.000000

  -0.006005  -0.007242  0.000000
  -0.007242  0.005186  0.000000
  0.000000  0.000000  0.000000

  -0.007090  -0.007462  0.000000
  -0.007462  0.005143  0.000000
  0.000000  0.000000  0.000000

  -0.006677  -0.007933  0.000000
  -0.007933  0.005586  0.000000
  0.000000  0.000000  0.000000

  0.006486  -0.004065  0.000000
  -0.004065  -0.006900  0.000000
  0.000000  0.000000  0.000000

  0.007038  -0.004628  0.000000
  -0.004628  -0.006603  0.000000
  0.000000  0.000000  0.000000

  -0.002492  -0.008128  0.000000
  -0.008128  0.001931  0.000000
  0.000000  0.000000  0.000000

  -0.003116  -0.008286  0.000000
  -0.008286  0.002061  0.000000
  0.000000  0.000000  0.000000

  0.012575  0.009645  0.000000
  0.009645  -0.002576  0.000000
  0.000000  0.000000  0.000000

  0.055788  0.002428  0.000000
  0.002428  -0.021244  0.000000
  0.000000  0.000000  0.000000

  0.020999  0.015922  0.000000
  0.015922  -0.006941  0.000000
  0.000000  0.000000  0.000000

  -0.048621  -0.070049  0.000000
  -0.070049  0.000029  0.000000
  0.000000  0.000000  0.000000

  -0.034729  -0.055585  0.000000
  -0.055585  0.004167  0.000000
  0.000000  0.000000  0.000000

  -0.051059  -0.038931  0.000000
  -0.038931  0.000029  0.000000
  0.000000  0.000000  0.000000

  -0.031729  -0.080603  0.000000
  -0.080603  0.003325  0.000000
  0.000000  0.000000  0.000000

  -0.014792  -0.068983  0.000000
  -0.068983  0.000442  0.000000
  0.000000  0.000000  0.000000

  -0.000918  -0.055262  0.000000
  -0.055262  0.001474  0.000000
  0.000000  0.000000  0.000000

  -0.016781  -0.040071  0.000000
  -0.040071  0.000442  0.000000
  0.000000  0.000000  0.000000

  0.001420  -0.080156  0.000000
  -0.080156  0.000958  0.000000
  0.000000  0.000000  0.000000

  0.017739  -0.068479  0.000000
  -0.068479  0.000970  0.000000
  0.000000  0.000000  0.000000

  0.032995  -0.054195  0.000000
  -0.054195  -0.001193  0.000000
  0.000000  0.000000  0.000000

  0.016137  -0.039613  0.000000
  -0.039613  0.000970  0.000000
  0.000000  0.000000  0.000000

  0.034795  -0.079517  0.000000
  -0.079517  -0.001504  0.000000
  0.000000  0.000000  0.000000

  0.052103  -0.068554  0.000000
  -0.068554  0.001174  0.000000
  0.000000  0.000000  0.000000

  0.070464  -0.052430  0.000000
  -0.052430  -0.005710  0.000000
  0.000000  0.000000  0.000000

  0.050605  -0.037694  0.000000
  -0.037694  0.001174  0.000000
  0.000000  0.000000  0.000000

  0.071676  -0.078221  0.000000
  -0.078221  -0.005898  0.000000
  0.000000  0.000000  0.000000

  0.091354  -0.069330  0.000000
  -0.069330  0.000569  0.000000
  0.000000  0.000000  0.000000

  0.117187  -0.048342  0.000000
  -0.048342  -0.015819  0.000000
  0.000000  0.000000  0.000000

  0.107924  -0.073655  0.000000
  -0.073655  -0.012139  0.000000
  0.000000  0.000000  0.000000

  0.090175  -0.033978  0.000000
  -0.033978  0.000569  0.000000
  0.000000  0.000000  0.000000

  0.135375  -0.068895  0.000000
  -0.068895  -0.002034  0.000000
  0.000000  0.000000  0.000000

  0.097610  -0.059341  0.000000
  -0.059341  -0.021465  0.000000
  0.000000  0.000000  0.000000

  0.086408  -0.077898  0.000000
  -0.077898  -0.020275  0.000000
  0.000000  0.000000  0.000000

  0.146957  -0.048560  0.000000
  -0.048560  -0.037562  0.000000
  0.000000  0.000000  0.000000

  0.142768  -0.026028  0.000000
  -0.026028  -0.002034  0.000000
  0.000000  0.000000  0.000000

  0.076958  -0.067277  0.000000
  -0.067277  -0.021458  0.000000
  0.000000  0.000000  0.000000

  0.115323  -0.055055  0.000000
  -0.055055  -0.035772  0.000000
  0.000000  0.000000  0.000000

  0.048275  -0.082359  0.000000
  -0.082359  -0.009372  0.000000
  0.000000  0.000000  0.000000

  0.037626  -0.071630  0.000000
  -0.071630  -0.008503  0.000000
  0.000000  0.000000  0.000000

  0.055493  -0.063037  0.000000
  -0.063037  -0.009184  0.000000
  0.000000  0.000000  0.000000

  0.014369  -0.084611  0.000000
  -0.084611  -0.002040  0.000000
  0.000000  0.000000  0.000000

  0.001093  -0.072665  0.000000
  -0.072665  0.002519  0.000000
  0.000000  0.000000  0.000000

  0.029784  -0.085007  0.000000
  -0.085007  -0.007998  0.000000
  0.000000  0.000000  0.000000

  0.018619  -0.065318  0.000000
  -0.065318  -0.001722  0.000000
  0.000000  0.000000  0.000000

  -0.018817  -0.085267  0.000000
  -0.085267  0.004549  0.000000
  0.000000  0.000000  0.000000

  -0.035217  -0.071868  0.000000
  -0.071868  0.013317  0.000000
  0.000000  0.000000  0.000000

  -0.002352  -0.087001  0.000000
  -0.087001  0.002301  0.000000
  0.000000  0.000000  0.000000

  -0.016330  -0.066029  0.000000
  -0.066029  0.005073  0.000000
  0.000000  0.000000  0.000000

  -0.052666  -0.084268  0.000000
  -0.084268  0.012237  0.000000
  0.000000  0.000000  0.000000

  -0.075585  -0.067858  0.000000
  -0.067858  0.026061  0.000000
  0.000000  0.000000  0.000000

  -0.034865  -0.085918  0.000000
  -0.085918  0.012734  0.000000
  0.000000  0.000000  0.000000

  -0.066272  -0.080126  0.000000
  -0.080126  0.024548  0.000000
  0.000000  0.000000  0.000000

  0.060500  -0.078137  0.000000
  -0.078137  -0.019592  0.000000
  0.000000  0.000000  0.000000

  0.123563  -0.061216  0.000000
  -0.061216  -0.036601  0.000000
  0.000000  0.000000  0.000000

  0.164511  -0.030879  0.000000
  -0.030879  -0.053208  0.000000
  0.000000  0.000000  0.000000

  0.123751  -0.036755  0.000000
  -0.036755  -0.052452  0.000000
  0.000000  0.000000  0.000000

  0.154567  -0.020372  0.000000
  -0.020372  -0.060339  0.000000
  0.000000  0.000000  0.000000

  -0.020446  -0.073171  0.000000
  -0.073171  0.009644  0.000000
  0.000000  0.000000  0.000000

  -0.017964  -0.084372  0.000000
  -0.084372  0.009327  0.000000
  0.000000  0.000000  0.000000

  -0.036357  -0.070657  0.000000
  -0.070657  0.017775  0.000000
  0.000000  0.000000  0.000000

  -0.003184  -0.072093  0.000000
  -0.072093  0.003421  0.000000
  0.000000  0.000000  0.000000

  0.098208  -0.065252  0.000000
  -0.065252  -0.036118  0.000000
  0.000000  0.000000  0.000000

  -0.056559  -0.070494  0.000000
  -0.070494  0.023295  0.000000
  0.000000  0.000000  0.000000

  -0.049410  -0.080313  0.000000
  -0.080313  0.022486  0.000000
  0.000000  0.000000  0.000000

  -0.069177  -0.063940  0.000000
  -0.063940  0.031818  0.000000
  0.000000  0.000000  0.000000

  -0.081261  -0.070842  0.000000
  -0.070842  0.037737  0.000000
  0.000000  0.000000  0.000000

  -0.060296  -0.069533  0.000000
  -0.069533  0.031905  0.000000
  0.000000  0.000000  0.000000

  0.015192  -0.072610  0.000000
  -0.072610  -0.003551  0.000000
  0.000000  0.000000  0.000000

  0.014182  -0.083728  0.000000
  -0.083728  -0.003426  0.000000
  0.000000  0.000000  0.000000

  0.030212  -0.069533  0.000000
  -0.069533  -0.011455  0.000000
  0.000000  0.000000  0.000000

  0.028589  -0.075609  0.000000
  -0.075609  -0.011884  0.000000
  0.000000  0.000000  0.000000

  0.045784  -0.078742  0.000000
  -0.078742  -0.016543  0.000000
  0.000000  0.000000  0.000000

  0.063861  -0.061862  0.000000
  -0.061862  -0.025948  0.000000
  0.000000  0.000000  0.000000

  0.051620  -0.069175  0.000000
  -0.069175  -0.017517  0.000000
  0.000000  0.000000  0.000000

  0.056108  -0.067309  0.000000
  -0.067309  -0.026040  0.000000
  0.000000  0.000000  0.000000

  0.074107  -0.065984  0.000000
  -0.065984  -0.031493  0.000000
  0.000000  0.000000  0.000000

  0.101078  -0.048518  0.000000
  -0.048518  -0.040581  0.000000
  0.000000  0.000000  0.000000

  0.046186  -0.060585  0.000000
  -0.060585  -0.018869  0.000000
  0.000000  0.000000  0.000000

  0.038320  -0.064918  0.000000
  -0.064918  -0.019058  0.000000
  0.000000  0.000000  0.000000

  0.076985  -0.051753  0.000000
  -0.051753  -0.039405  0.000000
  0.000000  0.000000  0.000000

  0.101458  -0.047114  0.000000
  -0.047114  -0.046498  0.000000
  0.000000  0.000000  0.000000

  0.123403  -0.027159  0.000000
  -0.027159  -0.049798  0.000000
  0.000000  0.000000  0.000000

  0.127263  -0.041744  0.000000
  -0.041744  -0.046700  0.000000
  0.000000  0.000000  0.000000

  0.097420  -0.032110  0.000000
  -0.032110  -0.049848  0.000000
  0.000000  0.000000  0.000000

  0.116059  -0.020086  0.000000
  -0.020086  -0.054686  0.000000
  0.000000  0.000000  0.000000

  0.136265  -0.002531  0.000000
  -0.002531  -0.052771  0.000000
  0.000000  0.000000  0.000000

  0.106348  -0.008381  0.000000
  -0.008381  -0.052317  0.000000
  0.000000  0.000000  0.000000

  0.120134  0.010974  0.000000
  0.010974  -0.052114  0.000000
  0.000000  0.000000  0.000000

  0.075339  -0.051242  0.000000
  -0.051242  -0.031910  0.000000
  0.000000  0.000000  0.000000

  0.058790  -0.055051  0.000000
  -0.055051  -0.031415  0.000000
  0.000000  0.000000  0.000000

  0.054046  -0.051009  0.000000
  -0.051009  -0.023741  0.000000
  0.000000  0.000000  0.000000

  0.042361  -0.054342  0.000000
  -0.054342  -0.023636  0.000000
  0.000000  0.000000  0.000000

  0.036614  -0.050104  0.000000
  -0.050104  -0.014881  0.000000
  0.000000  0.000000  0.000000

  0.056421  -0.040921  0.000000
  -0.040921  -0.026498  0.000000
  0.000000  0.000000  0.000000

  0.076282  -0.040471  0.000000
  -0.040471  -0.034805  0.000000
  0.000000  0.000000  0.000000

  0.027480  -0.057956  0.000000
  -0.057956  -0.010669  0.000000
  0.000000  0.000000  0.000000

  0.018824  -0.060674  0.000000
  -0.060674  -0.010699  0.000000
  0.000000  0.000000  0.000000

  0.010540  -0.054975  0.000000
  -0.054975  -0.001840  0.000000
  0.000000  0.000000  0.000000

  -0.005827  -0.064393  0.000000
  -0.064393  0.004137  0.000000
  0.000000  0.000000  0.000000

  0.005343  -0.056272  0.000000
  -0.056272  -0.001846  0.000000
  0.000000  0.000000  0.000000

  0.024677  -0.051083  0.000000
  -0.051083  -0.014665  0.000000
  0.000000  0.000000  0.000000

  0.046942  -0.042410  0.000000
  -0.042410  -0.026612  0.000000
  0.000000  0.000000  0.000000

  0.062352  -0.042374  0.000000
  -0.042374  -0.034786  0.000000
  0.000000  0.000000  0.000000

  0.076497  -0.029411  0.000000
  -0.029411  -0.036239  0.000000
  0.000000  0.000000  0.000000

  0.063496  -0.031143  0.000000
  -0.031143  -0.036238  0.000000
  0.000000  0.000000  0.000000

  0.079341  -0.028941  0.000000
  -0.028941  -0.043795  0.000000
  0.000000  0.000000  0.000000

  0.100633  -0.036901  0.000000
  -0.036901  -0.042907  0.000000
  0.000000  0.000000  0.000000

  0.077798  -0.039335  0.000000
  -0.039335  -0.042541  0.000000
  0.000000  0.000000  0.000000

  0.096886  -0.026443  0.000000
  -0.026443  -0.043504  0.000000
  0.000000  0.000000  0.000000

  0.091679  -0.020332  0.000000
  -0.020332  -0.049570  0.000000
  0.000000  0.000000  0.000000

  0.105618  -0.010410  0.000000
  -0.010410  -0.047873  0.000000
  0.000000  0.000000  0.000000

  0.114432  -0.016871  0.000000
  -0.016871  -0.049680  0.000000
  0.000000  0.000000  0.000000

  0.087255  -0.012220  0.000000
  -0.012220  -0.046562  0.000000
  0.000000  0.000000  0.000000

  0.096847  -0.001492  0.000000
  -0.001492  -0.048759  0.000000
  0.000000  0.000000  0.000000

  0.090449  -0.017545  0.000000
  -0.017545  -0.043099  0.000000
  0.000000  0.000000  0.000000

  0.074459  -0.019879  0.000000
  -0.019879  -0.042740  0.000000
  0.000000  0.000000  0.000000

  0.074436  -0.021208  0.000000
  -0.021208  -0.035286  0.000000
  0.000000  0.000000  0.000000

  0.060930  -0.023177  0.000000
  -0.023177  -0.035168  0.000000
  0.000000  0.000000  0.000000

  0.083280  -0.010654  0.000000
  -0.010654  -0.040111  0.000000
  0.000000  0.000000  0.000000

  0.059531  -0.023357  0.000000
  -0.023357  -0.027027  0.000000
  0.000000  0.000000  0.000000

  0.070327  -0.013273  0.000000
  -0.013273  -0.032847  0.000000
  0.000000  0.000000  0.000000

  0.071859  -0.011898  0.000000
  -0.011898  -0.040163  0.000000
  0.000000  0.000000  0.000000

  0.079518  -0.003750  0.000000
  -0.003750  -0.037652  0.000000
  0.000000  0.000000  0.000000

  0.082262  -0.008165  0.000000
  -0.008165  -0.045248  0.000000
  0.000000  0.000000  0.000000

  0.069805  -0.004824  0.000000
  -0.004824  -0.037703  0.000000
  0.000000  0.000000  0.000000

  0.079162  -0.001560  0.000000
  -0.001560  -0.043290  0.000000
  0.000000  0.000000  0.000000

  0.046757  -0.032066  0.000000
  -0.032066  -0.028002  0.000000
  0.000000  0.000000  0.000000

  0.045412  -0.032501  0.000000
  -0.032501  -0.019439  0.000000
  0.000000  0.000000  0.000000

  0.059807  -0.030234  0.000000
  -0.030234  -0.027926  0.000000
  0.000000  0.000000  0.000000

  0.030338  -0.040984  0.000000
  -0.040984  -0.018196  0.000000
  0.000000  0.000000  0.000000

  0.023830  -0.038445  0.000000
  -0.038445  -0.009811  0.000000
  0.000000  0.000000  0.000000

  0.033573  -0.033986  0.000000
  -0.033986  -0.019348  0.000000
  0.000000  0.000000  0.000000

  0.011677  -0.047706  0.000000
  -0.047706  -0.006414  0.000000
  0.000000  0.000000  0.000000

  0.018140  -0.046149  0.000000
  -0.046149  -0.006537  0.000000
  0.000000  0.000000  0.000000

  0.019373  -0.039875  0.000000
  -0.039875  -0.010024  0.000000
  0.000000  0.000000  0.000000

  0.004893  -0.042316  0.000000
  -0.042316  0.000627  0.000000
  0.000000  0.000000  0.000000

  0.046272  -0.024944  0.000000
  -0.024944  -0.026618  0.000000
  0.000000  0.000000  0.000000

  0.059518  -0.014928  0.000000
  -0.014928  -0.032957  0.000000
  0.000000  0.000000  0.000000

  0.028021  -0.030687  0.000000
  -0.030687  -0.011500  0.000000
  0.000000  0.000000  0.000000

  0.022525  -0.033539  0.000000
  -0.033539  -0.011665  0.000000
  0.000000  0.000000  0.000000

  0.017503  -0.030358  0.000000
  -0.030358  -0.006172  0.000000
  0.000000  0.000000  0.000000

  0.030212  -0.025380  0.000000
  -0.025380  -0.012149  0.000000
  0.000000  0.000000  0.000000

  0.044509  -0.024697  0.000000
  -0.024697  -0.019165  0.000000
  0.000000  0.000000  0.000000

  0.036049  -0.026995  0.000000
  -0.026995  -0.018855  0.000000
  0.000000  0.000000  0.000000

  0.043735  -0.018078  0.000000
  -0.018078  -0.017271  0.000000
  0.000000  0.000000  0.000000

  0.036596  -0.021092  0.000000
  -0.021092  -0.017391  0.000000
  0.000000  0.000000  0.000000

  0.047783  -0.017229  0.000000
  -0.017229  -0.024821  0.000000
  0.000000  0.000000  0.000000

  0.057074  -0.009518  0.000000
  -0.009518  -0.022149  0.000000
  0.000000  0.000000  0.000000

  0.033631  -0.020294  0.000000
  -0.020294  -0.011335  0.000000
  0.000000  0.000000  0.000000

  0.043950  -0.013261  0.000000
  -0.013261  -0.014162  0.000000
  0.000000  0.000000  0.000000

  0.046087  -0.012777  0.000000
  -0.012777  -0.020963  0.000000
  0.000000  0.000000  0.000000

  0.053372  -0.005070  0.000000
  -0.005070  -0.015618  0.000000
  0.000000  0.000000  0.000000

  0.043128  -0.010312  0.000000
  -0.010312  -0.014509  0.000000
  0.000000  0.000000  0.000000

  0.055442  -0.003780  0.000000
  -0.003780  -0.024012  0.000000
  0.000000  0.000000  0.000000

  0.057553  -0.007947  0.000000
  -0.007947  -0.029163  0.000000
  0.000000  0.000000  0.000000

  0.067903  -0.005877  0.000000
  -0.005877  -0.029040  0.000000
  0.000000  0.000000  0.000000

  0.043123  -0.011202  0.000000
  -0.011202  -0.010373  0.000000
  0.000000  0.000000  0.000000

  0.049926  -0.003129  0.000000
  -0.003129  -0.008012  0.000000
  0.000000  0.000000  0.000000

  0.061459  0.004265  0.000000
  0.004265  -0.015545  0.000000
  0.000000  0.000000  0.000000

  0.064718  -0.000086  0.000000
  -0.000086  -0.023435  0.000000
  0.000000  0.000000  0.000000

  0.067699  0.000678  0.000000
  0.000678  -0.033712  0.000000
  0.000000  0.000000  0.000000

  0.072798  0.006880  0.000000
  0.006880  -0.027422  0.000000
  0.000000  0.000000  0.000000

  0.075636  0.001729  0.000000
  0.001729  -0.033609  0.000000
  0.000000  0.000000  0.000000

  0.077266  0.002617  0.000000
  0.002617  -0.040631  0.000000
  0.000000  0.000000  0.000000

  0.078182  0.004324  0.000000
  0.004324  -0.037452  0.000000
  0.000000  0.000000  0.000000

  0.082968  0.003003  0.000000
  0.003003  -0.040606  0.000000
  0.000000  0.000000  0.000000

  0.096580  -0.005953  0.000000
  -0.005953  -0.044992  0.000000
  0.000000  0.000000  0.000000

  0.088648  0.001967  0.000000
  0.001967  -0.046376  0.000000
  0.000000  0.000000  0.000000

  -0.008619  -0.050028  0.000000
  -0.050028  0.005880  0.000000
  0.000000  0.000000  0.000000

  -0.000832  -0.043598  0.000000
  -0.043598  0.000809  0.000000
  0.000000  0.000000  0.000000

  0.152632  -0.014679  0.000000
  -0.014679  -0.054743  0.000000
  0.000000  0.000000  0.000000

  0.136606  0.000067  0.000000
  0.000067  -0.058857  0.000000
  0.000000  0.000000  0.000000

  0.007363  -0.037440  0.000000
  -0.037440  -0.003385  0.000000
  0.000000  0.000000  0.000000

  0.012239  -0.032696  0.000000
  -0.032696  -0.006097  0.000000
  0.000000  0.000000  0.000000

  0.025287  -0.027818  0.000000
  -0.027818  -0.012487  0.000000
  0.000000  0.000000  0.000000

  0.020676  -0.025832  0.000000
  -0.025832  -0.006898  0.000000
  0.000000  0.000000  0.000000

  0.034072  0.016548  0.000000
  0.016548  -0.014834  0.000000
  0.000000  0.000000  0.000000

  0.015261  0.012538  0.000000
  0.012538  -0.003555  0.000000
  0.000000  0.000000  0.000000

  0.010822  0.000385  0.000000
  0.000385  -0.006540  0.000000
  0.000000  0.000000  0.000000

  0.072889  0.009309  0.000000
  0.009309  -0.035675  0.000000
  0.000000  0.000000  0.000000

  0.077953  0.005843  0.000000
  0.005843  -0.038827  0.000000
  0.000000  0.000000  0.000000

  0.079696  0.005779  0.000000
  0.005779  -0.041451  0.000000
  0.000000  0.000000  0.000000

  0.006472  -0.006312  0.000000
  -0.006312  -0.005911  0.000000
  0.000000  0.000000  0.000000

  0.072238  0.003166  0.000000
  0.003166  -0.033064  0.000000
  0.000000  0.000000  0.000000

  0.072112  0.003853  0.000000
  0.003853  -0.034834  0.000000
  0.000000  0.000000  0.000000

  0.077163  0.005550  0.000000
  0.005550  -0.038724  0.000000
  0.000000  0.000000  0.000000

  0.077079  0.012312  0.000000
  0.012312  -0.037043  0.000000
  0.000000  0.000000  0.000000

  0.085633  0.006278  0.000000
  0.006278  -0.041708  0.000000
  0.000000  0.000000  0.000000

  0.083468  0.004229  0.000000
  0.004229  -0.043619  0.000000
  0.000000  0.000000  0.000000

  0.089474  -0.000340  0.000000
  -0.000340  -0.043158  0.000000
  0.000000  0.000000  0.000000

  0.042992  -0.012184  0.000000
  -0.012184  -0.021689  0.000000
  0.000000  0.000000  0.000000

  0.076439  -0.017545  0.000000
  -0.017545  -0.020856  0.000000
  0.000000  0.000000  0.000000

  0.014988  0.003295  0.000000
  0.003295  -0.007234  0.000000
  0.000000  0.000000  0.000000

  -0.155006  -0.017664  0.000000
  -0.017664  0.058957  0.000000
  0.000000  0.000000  0.000000

  -0.119618  -0.025215  0.000000
  -0.025215  0.059623  0.000000
  0.000000  0.000000  0.000000

  -0.127746  -0.034864  0.000000
  -0.034864  0.054121  0.000000
  0.000000  0.000000  0.000000

  -0.140844  -0.004216  0.000000
  -0.004216  0.062176  0.000000
  0.000000  0.000000  0.000000

  -0.100544  -0.039108  0.000000
  -0.039108  0.053905  0.000000
  0.000000  0.000000  0.000000

  -0.102290  -0.050612  0.000000
  -0.050612  0.050148  0.000000
  0.000000  0.000000  0.000000

  -0.102074  -0.051646  0.000000
  -0.051646  0.045282  0.000000
  0.000000  0.000000  0.000000

  -0.085885  -0.057720  0.000000
  -0.057720  0.045941  0.000000
  0.000000  0.000000  0.000000

  -0.100952  -0.040887  0.000000
  -0.040887  0.048661  0.000000
  0.000000  0.000000  0.000000

  -0.084488  -0.045131  0.000000
  -0.045131  0.048785  0.000000
  0.000000  0.000000  0.000000

  -0.079481  -0.054249  0.000000
  -0.054249  0.038886  0.000000
  0.000000  0.000000  0.000000

  -0.097683  -0.031274  0.000000
  -0.031274  0.049114  0.000000
  0.000000  0.000000  0.000000

  -0.083073  -0.045438  0.000000
  -0.045438  0.042163  0.000000
  0.000000  0.000000  0.000000

  -0.065138  -0.057805  0.000000
  -0.057805  0.039098  0.000000
  0.000000  0.000000  0.000000

  -0.060267  -0.055332  0.000000
  -0.055332  0.031051  0.000000
  0.000000  0.000000  0.000000

  -0.050167  -0.057132  0.000000
  -0.057132  0.031082  0.000000
  0.000000  0.000000  0.000000

  -0.041248  -0.067105  0.000000
  -0.067105  0.025448  0.000000
  0.000000  0.000000  0.000000

  -0.096723  -0.028573  0.000000
  -0.028573  0.054796  0.000000
  0.000000  0.000000  0.000000

  -0.083025  -0.034319  0.000000
  -0.034319  0.049454  0.000000
  0.000000  0.000000  0.000000

  -0.067822  -0.047392  0.000000
  -0.047392  0.042002  0.000000
  0.000000  0.000000  0.000000

  -0.129921  -0.046165  0.000000
  -0.046165  0.050732  0.000000
  0.000000  0.000000  0.000000

  -0.099499  -0.068177  0.000000
  -0.068177  0.040068  0.000000
  0.000000  0.000000  0.000000

  -0.092788  -0.063585  0.000000
  -0.063585  0.036646  0.000000
  0.000000  0.000000  0.000000

  -0.117266  -0.057006  0.000000
  -0.057006  0.039621  0.000000
  0.000000  0.000000  0.000000

  -0.004698  -0.049542  0.000000
  -0.049542  0.005752  0.000000
  0.000000  0.000000  0.000000

  -0.017587  -0.057442  0.000000
  -0.057442  0.011691  0.000000
  0.000000  0.000000  0.000000

  -0.015734  -0.055613  0.000000
  -0.055613  0.011342  0.000000
  0.000000  0.000000  0.000000

  -0.028635  -0.048999  0.000000
  -0.048999  0.017549  0.000000
  0.000000  0.000000  0.000000

  -0.028656  -0.062797  0.000000
  -0.062797  0.018035  0.000000
  0.000000  0.000000  0.000000

  -0.042642  -0.052489  0.000000
  -0.052489  0.024461  0.000000
  0.000000  0.000000  0.000000

  -0.037328  -0.054097  0.000000
  -0.054097  0.023845  0.000000
  0.000000  0.000000  0.000000

  -0.049128  -0.044596  0.000000
  -0.044596  0.028441  0.000000
  0.000000  0.000000  0.000000

  -0.056495  -0.047134  0.000000
  -0.047134  0.035198  0.000000
  0.000000  0.000000  0.000000

  -0.067085  -0.037136  0.000000
  -0.037136  0.037533  0.000000
  0.000000  0.000000  0.000000

  -0.042943  -0.045457  0.000000
  -0.045457  0.028301  0.000000
  0.000000  0.000000  0.000000

  -0.064110  -0.045637  0.000000
  -0.045637  0.035241  0.000000
  0.000000  0.000000  0.000000

  -0.033644  -0.060978  0.000000
  -0.060978  0.018402  0.000000
  0.000000  0.000000  0.000000

  -0.070524  -0.036964  0.000000
  -0.036964  0.043882  0.000000
  0.000000  0.000000  0.000000

  -0.081956  -0.028010  0.000000
  -0.028010  0.044229  0.000000
  0.000000  0.000000  0.000000

  -0.058875  -0.038426  0.000000
  -0.038426  0.037508  0.000000
  0.000000  0.000000  0.000000

  -0.015664  -0.072118  0.000000
  -0.072118  0.010974  0.000000
  0.000000  0.000000  0.000000

  -0.054732  -0.036726  0.000000
  -0.036726  0.029777  0.000000
  0.000000  0.000000  0.000000

  -0.037875  -0.041614  0.000000
  -0.041614  0.021639  0.000000
  0.000000  0.000000  0.000000

  -0.080396  -0.025318  0.000000
  -0.025318  0.048872  0.000000
  0.000000  0.000000  0.000000

  -0.069470  -0.029462  0.000000
  -0.029462  0.043954  0.000000
  0.000000  0.000000  0.000000

  -0.068388  -0.029949  0.000000
  -0.029949  0.037110  0.000000
  0.000000  0.000000  0.000000

  -0.059036  -0.031102  0.000000
  -0.031102  0.036999  0.000000
  0.000000  0.000000  0.000000

  -0.066878  -0.024047  0.000000
  -0.024047  0.035844  0.000000
  0.000000  0.000000  0.000000

  -0.056733  -0.030227  0.000000
  -0.030227  0.030599  0.000000
  0.000000  0.000000  0.000000

  -0.002606  -0.061419  0.000000
  -0.061419  0.003478  0.000000
  0.000000  0.000000  0.000000

  -0.019635  -0.068595  0.000000
  -0.068595  0.011523  0.000000
  0.000000  0.000000  0.000000

  -0.002951  -0.077648  0.000000
  -0.077648  0.003100  0.000000
  0.000000  0.000000  0.000000

  0.015480  -0.067294  0.000000
  -0.067294  -0.004353  0.000000
  0.000000  0.000000  0.000000

  -0.032416  -0.076256  0.000000
  -0.076256  0.017781  0.000000
  0.000000  0.000000  0.000000

  -0.051758  -0.063799  0.000000
  -0.063799  0.026160  0.000000
  0.000000  0.000000  0.000000

  0.010983  -0.035994  0.000000
  -0.035994  -0.003353  0.000000
  0.000000  0.000000  0.000000

  0.013453  0.002277  0.000000
  0.002277  -0.003427  0.000000
  0.000000  0.000000  0.000000

  0.071007  -0.008446  0.000000
  -0.008446  -0.026692  0.000000
  0.000000  0.000000  0.000000

  0.073416  0.004606  0.000000
  0.004606  -0.034727  0.000000
  0.000000  0.000000  0.000000

  0.085085  0.006151  0.000000
  0.006151  -0.033290  0.000000
  0.000000  0.000000  0.000000

  0.083357  0.014173  0.000000
  0.014173  -0.038593  0.000000
  0.000000  0.000000  0.000000

  0.094610  0.006088  0.000000
  0.006088  -0.044143  0.000000
  0.000000  0.000000  0.000000

  -0.020244  -0.005495  0.000000
  -0.005495  0.013855  0.000000
  0.000000  0.000000  0.000000

  -0.108377  -0.015100  0.000000
  -0.015100  0.056814  0.000000
  0.000000  0.000000  0.000000

  -0.118636  -0.023959  0.000000
  -0.023959  0.054089  0.000000
  0.000000  0.000000  0.000000

  -0.121543  -0.004009  0.000000
  -0.004009  0.052985  0.000000
  0.000000  0.000000  0.000000

  0.104990  0.014478  0.000000
  0.014478  -0.046255  0.000000
  0.000000  0.000000  0.000000

  0.119089  0.003144  0.000000
  0.003144  -0.048698  0.000000
  0.000000  0.000000  0.000000

  0.092897  0.015112  0.000000
  0.015112  -0.041629  0.000000
  0.000000  0.000000  0.000000

  0.105329  0.005764  0.000000
  0.005764  -0.046189  0.000000
  0.000000  0.000000  0.000000

  0.001753  -0.007107  0.000000
  -0.007107  -0.002348  0.000000
  0.000000  0.000000  0.000000

  -0.000089  -0.007571  0.000000
  -0.007571  -0.000429  0.000000
  0.000000  0.000000  0.000000

  -0.002076  -0.007539  0.000000
  -0.007539  0.001538  0.000000
  0.000000  0.000000  0.000000

  -0.010050  -0.003475  0.000000
  -0.003475  0.008541  0.000000
  0.000000  0.000000  0.000000

  0.002967  -0.006490  0.000000
  -0.006490  -0.003592  0.000000
  0.000000  0.000000  0.000000

  -0.036215  -0.030104  0.000000
  -0.030104  0.012720  0.000000
  0.000000  0.000000  0.000000

  -0.034311  -0.028558  0.000000
  -0.028558  0.013122  0.000000
  0.000000  0.000000  0.000000

  -0.030778  -0.028450  0.000000
  -0.028450  0.013066  0.000000
  0.000000  0.000000  0.000000

  -0.027486  -0.033637  0.000000
  -0.033637  0.007680  0.000000
  0.000000  0.000000  0.000000

  -0.050967  -0.035563  0.000000
  -0.035563  0.003063  0.000000
  0.000000  0.000000  0.000000

  0.006025  -0.003100  0.000000
  -0.003100  -0.006667  0.000000
  0.000000  0.000000  0.000000

  -0.007671  -0.005166  0.000000
  -0.005166  0.006778  0.000000
  0.000000  0.000000  0.000000

  -0.006820  -0.006886  0.000000
  -0.006886  0.005826  0.000000
  0.000000  0.000000  0.000000

  -0.032360  -0.035544  0.000000
  -0.035544  0.005337  0.000000
  0.000000  0.000000  0.000000

  -0.005297  -0.006598  0.000000
  -0.006598  0.004671  0.000000
  0.000000  0.000000  0.000000

  -0.033983  0.002365  0.000000
  0.002365  0.017532  0.000000
  0.000000  0.000000  0.000000

  -0.092259  -0.000822  0.000000
  -0.000822  0.044960  0.000000
  0.000000  0.000000  0.000000

  -0.088580  -0.005087  0.000000
  -0.005087  0.048797  0.000000
  0.000000  0.000000  0.000000

  -0.096747  -0.011345  0.000000
  -0.011345  0.048721  0.000000
  0.000000  0.000000  0.000000

  -0.083529  -0.014064  0.000000
  -0.014064  0.048911  0.000000
  0.000000  0.000000  0.000000

  -0.089661  -0.019671  0.000000
  -0.019671  0.052042  0.000000
  0.000000  0.000000  0.000000

  -0.107462  -0.016391  0.000000
  -0.016391  0.052637  0.000000
  0.000000  0.000000  0.000000

  -0.009873  -0.007557  0.000000
  -0.007557  0.007143  0.000000
  0.000000  0.000000  0.000000

  -0.009232  -0.008553  0.000000
  -0.008553  0.007420  0.000000
  0.000000  0.000000  0.000000

  -0.008997  -0.008719  0.000000
  -0.008719  0.006794  0.000000
  0.000000  0.000000  0.000000

  -0.010713  -0.008824  0.000000
  -0.008824  0.007555  0.000000
  0.000000  0.000000  0.000000

  0.065996  0.004652  0.000000
  0.004652  -0.027361  0.000000
  0.000000  0.000000  0.000000

  0.069192  0.010232  0.000000
  0.010232  -0.017637  0.000000
  0.000000  0.000000  0.000000

  0.078132  0.005206  0.000000
  0.005206  -0.037428  0.000000
  0.000000  0.000000  0.000000

  -0.073220  -0.022788  0.000000
  -0.022788  0.019698  0.000000
  0.000000  0.000000  0.000000

  -0.008221  -0.007298  0.000000
  -0.007298  0.006564  0.000000
  0.000000  0.000000  0.000000

  -0.047296  -0.031844  0.000000
  -0.031844  0.030332  0.000000
  0.000000  0.000000  0.000000

  -0.006783  -0.005797  0.000000
  -0.005797  0.006040  0.000000
  0.000000  0.000000  0.000000

  -0.035630  -0.035903  0.000000
  -0.035903  -0.000794  0.000000
  0.000000  0.000000  0.000000

  -0.058947  -0.025418  0.000000
  -0.025418  0.035805  0.000000
  0.000000  0.000000  0.000000

  -0.024705  -0.049531  0.000000
  -0.049531  0.017562  0.000000
  0.000000  0.000000  0.000000

  -0.016184  -0.043114  0.000000
  -0.043114  0.011055  0.000000
  0.000000  0.000000  0.000000

  -0.018305  -0.044707  0.000000
  -0.044707  0.011472  0.000000
  0.000000  0.000000  0.000000

  -0.023460  -0.038233  0.000000
  -0.038233  0.016791  0.000000
  0.000000  0.000000  0.000000

  -0.007532  -0.038126  0.000000
  -0.038126  0.006191  0.000000
  0.000000  0.000000  0.000000

  -0.011036  -0.039721  0.000000
  -0.039721  0.006504  0.000000
  0.000000  0.000000  0.000000

  -0.034436  -0.042294  0.000000
  -0.042294  0.021507  0.000000
  0.000000  0.000000  0.000000

  -0.042593  -0.034534  0.000000
  -0.034534  0.022620  0.000000
  0.000000  0.000000  0.000000

  -0.032157  -0.035062  0.000000
  -0.035062  0.021703  0.000000
  0.000000  0.000000  0.000000

  -0.046940  -0.036943  0.000000
  -0.036943  0.029750  0.000000
  0.000000  0.000000  0.000000

  -0.043347  -0.029658  0.000000
  -0.029658  0.022638  0.000000
  0.000000  0.000000  0.000000

  -0.031926  -0.037393  0.000000
  -0.037393  0.016756  0.000000
  0.000000  0.000000  0.000000

  -0.017091  -0.033789  0.000000
  -0.033789  0.010164  0.000000
  0.000000  0.000000  0.000000

  -0.000551  -0.033622  0.000000
  -0.033622  0.001916  0.000000
  0.000000  0.000000  0.000000

  -0.068519  -0.023707  0.000000
  -0.023707  0.041845  0.000000
  0.000000  0.000000  0.000000

  -0.074269  -0.018673  0.000000
  -0.018673  0.038807  0.000000
  0.000000  0.000000  0.000000

  -0.093333  -0.023606  0.000000
  -0.023606  0.048865  0.000000
  0.000000  0.000000  0.000000

  -0.036931  -0.022428  0.000000
  -0.022428  0.017238  0.000000
  0.000000  0.000000  0.000000

  -0.028485  -0.032017  0.000000
  -0.032017  0.007572  0.000000
  0.000000  0.000000  0.000000

  -0.023001  -0.036293  0.000000
  -0.036293  0.002350  0.000000
  0.000000  0.000000  0.000000

  -0.019158  -0.033153  0.000000
  -0.033153  0.003511  0.000000
  0.000000  0.000000  0.000000

  -0.022775  -0.032479  0.000000
  -0.032479  0.002031  0.000000
  0.000000  0.000000  0.000000

  -0.010579  -0.008388  0.000000
  -0.008388  0.008422  0.000000
  0.000000  0.000000  0.000000

  -0.087284  -0.018954  0.000000
  -0.018954  0.046908  0.000000
  0.000000  0.000000  0.000000

  -0.076503  -0.020648  0.000000
  -0.020648  0.046565  0.000000
  0.000000  0.000000  0.000000

  -0.080678  -0.015390  0.000000
  -0.015390  0.043150  0.000000
  0.000000  0.000000  0.000000

  -0.028474  -0.027091  0.000000
  -0.027091  0.012306  0.000000
  0.000000  0.000000  0.000000

  -0.008515  -0.009853  0.000000
  -0.009853  0.006580  0.000000
  0.000000  0.000000  0.000000

  -0.077570  -0.022804  0.000000
  -0.022804  0.042211  0.000000
  0.000000  0.000000  0.000000

  -0.024635  -0.031289  0.000000
  -0.031289  0.008084  0.000000
  0.000000  0.000000  0.000000

  -0.008075  -0.008401  0.000000
  -0.008401  0.006245  0.000000
  0.000000  0.000000  0.000000

  -0.052716  -0.065506  0.000000
  -0.065506  0.012351  0.000000
  0.000000  0.000000  0.000000

  -0.009865  -0.010031  0.000000
  -0.010031  0.007781  0.000000
  0.000000  0.000000  0.000000

  -0.030150  -0.011284  0.000000
  -0.011284  0.017048  0.000000
  0.000000  0.000000  0.000000

  -0.006930  -0.008377  0.000000
  -0.008377  0.004808  0.000000
  0.000000  0.000000  0.000000

  -0.006237  -0.009102  0.000000
  -0.009102  0.005174  0.000000
  0.000000  0.000000  0.000000

  -0.005910  -0.009014  0.000000
  -0.009014  0.004548  0.000000
  0.000000  0.000000  0.000000

  -0.005868  -0.008647  0.000000
  -0.008647  0.004109  0.000000
  0.000000  0.000000  0.000000

  -0.007160  -0.009295  0.000000
  -0.009295  0.005139  0.000000
  0.000000  0.000000  0.000000

  -0.026334  -0.035878  0.000000
  -0.035878  0.000253  0.000000
  0.000000  0.000000  0.000000

  -0.019438  -0.035227  0.000000
  -0.035227  0.003910  0.000000
  0.000000  0.000000  0.000000

  -0.016024  -0.032697  0.000000
  -0.032697  0.003886  0.000000
  0.000000  0.000000  0.000000

  -0.016048  -0.033576  0.000000
  -0.033576  0.004042  0.000000
  0.000000  0.000000  0.000000

  -0.012050  -0.035758  0.000000
  -0.035758  0.000759  0.000000
  0.000000  0.000000  0.000000

  -0.015143  -0.036604  0.000000
  -0.036604  0.000050  0.000000
  0.000000  0.000000  0.000000

  0.004475  -0.007374  0.000000
  -0.007374  -0.005228  0.000000
  0.000000  0.000000  0.000000

  0.003208  -0.008411  0.000000
  -0.008411  -0.003714  0.000000
  0.000000  0.000000  0.000000

  0.156687  -0.058155  0.000000
  -0.058155  -0.033473  0.000000
  0.000000  0.000000  0.000000

  -0.007519  -0.008361  0.000000
  -0.008361  0.005557  0.000000
  0.000000  0.000000  0.000000

  0.005506  -0.007072  0.000000
  -0.007072  -0.005981  0.000000
  0.000000  0.000000  0.000000

  -0.030588  -0.005554  0.000000
  -0.005554  0.018333  0.000000
  0.000000  0.000000  0.000000

  -0.024876  -0.009798  0.000000
  -0.009798  0.015121  0.000000
  0.000000  0.000000  0.000000

  0.009757  -0.070993  0.000000
  -0.070993  -0.003383  0.000000
  0.000000  0.000000  0.000000

  0.004127  -0.006623  0.000000
  -0.006623  -0.004798  0.000000
  0.000000  0.000000  0.000000

  -0.017988  -0.036372  0.000000
  -0.036372  -0.000872  0.000000
  0.000000  0.000000  0.000000

  -0.059577  -0.016274  0.000000
  -0.016274  0.019167  0.000000
  0.000000  0.000000  0.000000

  -0.011835  -0.006513  0.000000
  -0.006513  0.008706  0.000000
  0.000000  0.000000  0.000000

  0.051224  -0.002505  0.000000
  -0.002505  -0.016147  0.000000
  0.000000  0.000000  0.000000

  0.007117  -0.005595  0.000000
  -0.005595  -0.006545  0.000000
  0.000000  0.000000  0.000000

  -0.002855  -0.009034  0.000000
  -0.009034  0.001654  0.000000
  0.000000  0.000000  0.000000

  -0.003920  -0.008969  0.000000
  -0.008969  0.002417  0.000000
  0.000000  0.000000  0.000000

  0.007046  -0.029061  0.000000
  -0.029061  -0.002231  0.000000
  0.000000  0.000000  0.000000

  -0.001106  -0.009102  0.000000
  -0.009102  0.000159  0.000000
  0.000000  0.000000  0.000000

  0.057840  -0.016091  0.000000
  -0.016091  -0.024891  0.000000
  0.000000  0.000000  0.000000

  0.011204  -0.001682  0.000000
  -0.001682  -0.006843  0.000000
  0.000000  0.000000  0.000000

  -0.012739  -0.031171  0.000000
  -0.031171  0.004106  0.000000
  0.000000  0.000000  0.000000

  0.009719  -0.003869  0.000000
  -0.003869  -0.007848  0.000000
  0.000000  0.000000  0.000000

  0.009144  -0.004230  0.000000
  -0.004230  -0.007719  0.000000
  0.000000  0.000000  0.000000

  0.035509  -0.017816  0.000000
  -0.017816  -0.014465  0.000000
  0.000000  0.000000  0.000000

  0.034122  -0.017943  0.000000
  -0.017943  -0.008885  0.000000
  0.000000  0.000000  0.000000

  0.025939  -0.024488  0.000000
  -0.024488  -0.011390  0.000000
  0.000000  0.000000  0.000000

  0.023545  -0.023559  0.000000
  -0.023559  -0.006921  0.000000
  0.000000  0.000000  0.000000

  0.026915  -0.023955  0.000000
  -0.023955  -0.009116  0.000000
  0.000000  0.000000  0.000000

  0.015761  -0.029497  0.000000
  -0.029497  -0.007387  0.000000
  0.000000  0.000000  0.000000

  0.011426  -0.027190  0.000000
  -0.027190  -0.003487  0.000000
  0.000000  0.000000  0.000000

  0.018551  -0.028294  0.000000
  -0.028294  -0.007217  0.000000
  0.000000  0.000000  0.000000

  0.004357  -0.032478  0.000000
  -0.032478  -0.002105  0.000000
  0.000000  0.000000  0.000000

  0.009732  -0.031159  0.000000
  -0.031159  -0.004184  0.000000
  0.000000  0.000000  0.000000

  -0.000899  -0.028654  0.000000
  -0.028654  0.000268  0.000000
  0.000000  0.000000  0.000000

  0.024408  -0.022525  0.000000
  -0.022525  -0.006664  0.000000
  0.000000  0.000000  0.000000

  0.020818  -0.028512  0.000000
  -0.028512  -0.006968  0.000000
  0.000000  0.000000  0.000000

  0.018086  -0.026396  0.000000
  -0.026396  -0.006259  0.000000
  0.000000  0.000000  0.000000

  0.026203  -0.023404  0.000000
  -0.023404  -0.007206  0.000000
  0.000000  0.000000  0.000000

  0.032702  -0.017934  0.000000
  -0.017934  -0.006880  0.000000
  0.000000  0.000000  0.000000

  0.004283  -0.027821  0.000000
  -0.027821  -0.002268  0.000000
  0.000000  0.000000  0.000000

  0.014648  -0.025799  0.000000
  -0.025799  -0.004789  0.000000
  0.000000  0.000000  0.000000

  0.012662  -0.030885  0.000000
  -0.030885  -0.005398  0.000000
  0.000000  0.000000  0.000000

  0.009750  -0.028300  0.000000
  -0.028300  -0.004619  0.000000
  0.000000  0.000000  0.000000

  0.003890  -0.031961  0.000000
  -0.031961  -0.002920  0.000000
  0.000000  0.000000  0.000000

  -0.000117  -0.028862  0.000000
  -0.028862  -0.002186  0.000000
  0.000000  0.000000  0.000000

  0.007783  -0.032576  0.000000
  -0.032576  -0.004585  0.000000
  0.000000  0.000000  0.000000

  -0.005456  -0.032112  0.000000
  -0.032112  0.000603  0.000000
  0.000000  0.000000  0.000000

  0.000626  -0.033086  0.000000
  -0.033086  -0.002927  0.000000
  0.000000  0.000000  0.000000

  -0.006103  -0.028031  0.000000
  -0.028031  0.000085  0.000000
  0.000000  0.000000  0.000000

  -0.011386  -0.031805  0.000000
  -0.031805  0.004833  0.000000
  0.000000  0.000000  0.000000

  -0.013267  -0.028539  0.000000
  -0.028539  0.004880  0.000000
  0.000000  0.000000  0.000000

  -0.017718  -0.026890  0.000000
  -0.026890  0.004123  0.000000
  0.000000  0.000000  0.000000

  -0.009626  -0.027944  0.000000
  -0.027944  -0.000395  0.000000
  0.000000  0.000000  0.000000

  -0.004310  -0.029496  0.000000
  -0.029496  -0.002765  0.000000
  0.000000  0.000000  0.000000

  0.004254  -0.029417  0.000000
  -0.029417  -0.004618  0.000000
  0.000000  0.000000  0.000000

  0.004690  -0.034206  0.000000
  -0.034206  -0.005012  0.000000
  0.000000  0.000000  0.000000

  0.001186  -0.031151  0.000000
  -0.031151  -0.004913  0.000000
  0.000000  0.000000  0.000000

  0.008357  -0.030560  0.000000
  -0.030560  -0.006317  0.000000
  0.000000  0.000000  0.000000

  -0.007571  -0.033230  0.000000
  -0.033230  0.004011  0.000000
  0.000000  0.000000  0.000000

  -0.002959  -0.034162  0.000000
  -0.034162  -0.003475  0.000000
  0.000000  0.000000  0.000000

  -0.007193  -0.030865  0.000000
  -0.030865  -0.003126  0.000000
  0.000000  0.000000  0.000000

  -0.010978  -0.033594  0.000000
  -0.033594  -0.001386  0.000000
  0.000000  0.000000  0.000000

  -0.005823  -0.035292  0.000000
  -0.035292  -0.003759  0.000000
  0.000000  0.000000  0.000000

  0.008729  -0.034514  0.000000
  -0.034514  -0.006934  0.000000
  0.000000  0.000000  0.000000

  -0.000679  -0.032348  0.000000
  -0.032348  0.000159  0.000000
  0.000000  0.000000  0.000000

  0.000828  -0.035259  0.000000
  -0.035259  -0.004949  0.000000
  0.000000  0.000000  0.000000

  0.012463  -0.033158  0.000000
  -0.033158  -0.007025  0.000000
  0.000000  0.000000  0.000000

  0.012651  -0.028748  0.000000
  -0.028748  -0.006114  0.000000
  0.000000  0.000000  0.000000

  0.015720  -0.031000  0.000000
  -0.031000  -0.006371  0.000000
  0.000000  0.000000  0.000000

  0.021501  -0.027081  0.000000
  -0.027081  -0.008162  0.000000
  0.000000  0.000000  0.000000

  0.018085  -0.031310  0.000000
  -0.031310  -0.007431  0.000000
  0.000000  0.000000  0.000000

  0.023396  -0.028919  0.000000
  -0.028919  -0.007632  0.000000
  0.000000  0.000000  0.000000

  -0.015613  -0.029438  0.000000
  -0.029438  -0.001988  0.000000
  0.000000  0.000000  0.000000

  -0.002830  -0.032282  0.000000
  -0.032282  -0.004330  0.000000
  0.000000  0.000000  0.000000

  -0.002456  -0.036281  0.000000
  -0.036281  -0.004628  0.000000
  0.000000  0.000000  0.000000

  -0.006683  -0.033376  0.000000
  -0.033376  -0.002209  0.000000
  0.000000  0.000000  0.000000

  0.000791  -0.033060  0.000000
  -0.033060  -0.005033  0.000000
  0.000000  0.000000  0.000000

  0.016309  -0.029197  0.000000
  -0.029197  -0.008241  0.000000
  0.000000  0.000000  0.000000

  0.014853  -0.033427  0.000000
  -0.033427  -0.008295  0.000000
  0.000000  0.000000  0.000000

  0.012409  -0.030938  0.000000
  -0.030938  -0.008203  0.000000
  0.000000  0.000000  0.000000

  0.011452  -0.034384  0.000000
  -0.034384  -0.008514  0.000000
  0.000000  0.000000  0.000000

  0.018982  -0.029469  0.000000
  -0.029469  -0.010107  0.000000
  0.000000  0.000000  0.000000

  0.008751  -0.032154  0.000000
  -0.032154  -0.007657  0.000000
  0.000000  0.000000  0.000000

  0.007394  -0.034799  0.000000
  -0.034799  -0.007763  0.000000
  0.000000  0.000000  0.000000

  0.014953  -0.030597  0.000000
  -0.030597  -0.009604  0.000000
  0.000000  0.000000  0.000000

  0.018242  -0.032410  0.000000
  -0.032410  -0.010493  0.000000
  0.000000  0.000000  0.000000

  0.022309  -0.028301  0.000000
  -0.028301  -0.012180  0.000000
  0.000000  0.000000  0.000000

  0.020574  -0.030541  0.000000
  -0.030541  -0.012488  0.000000
  0.000000  0.000000  0.000000

  0.025252  -0.029980  0.000000
  -0.029980  -0.012854  0.000000
  0.000000  0.000000  0.000000

  0.022064  -0.031480  0.000000
  -0.031480  -0.010458  0.000000
  0.000000  0.000000  0.000000

  0.004415  -0.032762  0.000000
  -0.032762  -0.005916  0.000000
  0.000000  0.000000  0.000000

  0.011285  -0.031330  0.000000
  -0.031330  -0.008623  0.000000
  0.000000  0.000000  0.000000

  0.014045  -0.033034  0.000000
  -0.033034  -0.010074  0.000000
  0.000000  0.000000  0.000000

  -0.013225  -0.028181  0.000000
  -0.028181  -0.001542  0.000000
  0.000000  0.000000  0.000000

  -0.010708  -0.032107  0.000000
  -0.032107  -0.002244  0.000000
  0.000000  0.000000  0.000000

  0.023903  -0.027819  0.000000
  -0.027819  -0.009705  0.000000
  0.000000  0.000000  0.000000

  0.025684  -0.029384  0.000000
  -0.029384  -0.009426  0.000000
  0.000000  0.000000  0.000000

  0.031769  -0.025572  0.000000
  -0.025572  -0.011993  0.000000
  0.000000  0.000000  0.000000

  0.028906  -0.024419  0.000000
  -0.024419  -0.008546  0.000000
  0.000000  0.000000  0.000000

  0.030621  -0.026117  0.000000
  -0.026117  -0.008075  0.000000
  0.000000  0.000000  0.000000

  0.028386  -0.028680  0.000000
  -0.028680  -0.011526  0.000000
  0.000000  0.000000  0.000000

  0.034961  -0.024120  0.000000
  -0.024120  -0.015048  0.000000
  0.000000  0.000000  0.000000

  0.030037  -0.025842  0.000000
  -0.025842  -0.014694  0.000000
  0.000000  0.000000  0.000000

  0.035969  -0.025185  0.000000
  -0.025185  -0.014089  0.000000
  0.000000  0.000000  0.000000

  0.026381  -0.027111  0.000000
  -0.027111  -0.012106  0.000000
  0.000000  0.000000  0.000000

  0.037249  -0.022023  0.000000
  -0.022023  -0.010909  0.000000
  0.000000  0.000000  0.000000

  0.033994  -0.020369  0.000000
  -0.020369  -0.007934  0.000000
  0.000000  0.000000  0.000000

  0.028653  -0.025273  0.000000
  -0.025273  -0.007319  0.000000
  0.000000  0.000000  0.000000

  0.029579  -0.025316  0.000000
  -0.025316  -0.014715  0.000000
  0.000000  0.000000  0.000000

  0.025848  -0.027518  0.000000
  -0.027518  -0.014771  0.000000
  0.000000  0.000000  0.000000

  0.024733  -0.026538  0.000000
  -0.026538  -0.013916  0.000000
  0.000000  0.000000  0.000000

  0.021447  -0.028079  0.000000
  -0.028079  -0.014048  0.000000
  0.000000  0.000000  0.000000

  0.030175  -0.022924  0.000000
  -0.022924  -0.016209  0.000000
  0.000000  0.000000  0.000000

  0.020244  -0.027403  0.000000
  -0.027403  -0.012428  0.000000
  0.000000  0.000000  0.000000

  0.025261  -0.023804  0.000000
  -0.023804  -0.014845  0.000000
  0.000000  0.000000  0.000000

  0.026505  -0.024017  0.000000
  -0.024017  -0.016373  0.000000
  0.000000  0.000000  0.000000

  0.030768  -0.019270  0.000000
  -0.019270  -0.017087  0.000000
  0.000000  0.000000  0.000000

  0.026048  -0.020102  0.000000
  -0.020102  -0.017199  0.000000
  0.000000  0.000000  0.000000

  0.030976  -0.018762  0.000000
  -0.018762  -0.018741  0.000000
  0.000000  0.000000  0.000000

  0.031431  -0.023305  0.000000
  -0.023305  -0.017358  0.000000
  0.000000  0.000000  0.000000

  0.036744  -0.021682  0.000000
  -0.021682  -0.017016  0.000000
  0.000000  0.000000  0.000000

  0.036189  -0.020906  0.000000
  -0.020906  -0.018081  0.000000
  0.000000  0.000000  0.000000

  0.043356  -0.015799  0.000000
  -0.015799  -0.019604  0.000000
  0.000000  0.000000  0.000000

  0.042791  -0.019352  0.000000
  -0.019352  -0.017793  0.000000
  0.000000  0.000000  0.000000

  0.041552  -0.018929  0.000000
  -0.018929  -0.016223  0.000000
  0.000000  0.000000  0.000000

  0.049475  -0.012758  0.000000
  -0.012758  -0.020004  0.000000
  0.000000  0.000000  0.000000

  0.048629  -0.015403  0.000000
  -0.015403  -0.015605  0.000000
  0.000000  0.000000  0.000000

  0.035010  -0.016541  0.000000
  -0.016541  -0.019471  0.000000
  0.000000  0.000000  0.000000

  0.040591  -0.011511  0.000000
  -0.011511  -0.019858  0.000000
  0.000000  0.000000  0.000000

  0.032866  -0.011833  0.000000
  -0.011833  -0.019793  0.000000
  0.000000  0.000000  0.000000

  0.037530  -0.008929  0.000000
  -0.008929  -0.021223  0.000000
  0.000000  0.000000  0.000000

  0.036331  -0.017749  0.000000
  -0.017749  -0.018561  0.000000
  0.000000  0.000000  0.000000

  0.040994  -0.013516  0.000000
  -0.013516  -0.019990  0.000000
  0.000000  0.000000  0.000000

  0.038182  -0.022144  0.000000
  -0.022144  -0.013536  0.000000
  0.000000  0.000000  0.000000

  0.043182  -0.025607  0.000000
  -0.025607  -0.011929  0.000000
  0.000000  0.000000  0.000000

  0.036084  -0.020873  0.000000
  -0.020873  -0.006442  0.000000
  0.000000  0.000000  0.000000

  0.032530  -0.026959  0.000000
  -0.026959  -0.009469  0.000000
  0.000000  0.000000  0.000000

  0.036587  -0.008625  0.000000
  -0.008625  -0.018948  0.000000
  0.000000  0.000000  0.000000

  0.048020  -0.007852  0.000000
  -0.007852  -0.021121  0.000000
  0.000000  0.000000  0.000000

  0.041851  0.000325  0.000000
  0.000325  -0.020235  0.000000
  0.000000  0.000000  0.000000

  0.045741  0.003378  0.000000
  0.003378  -0.018185  0.000000
  0.000000  0.000000  0.000000

  0.057290  0.002239  0.000000
  0.002239  -0.021512  0.000000
  0.000000  0.000000  0.000000

  0.034784  -0.014134  0.000000
  -0.014134  -0.018575  0.000000
  0.000000  0.000000  0.000000

  0.028477  -0.015046  0.000000
  -0.015046  -0.018631  0.000000
  0.000000  0.000000  0.000000

  0.029389  -0.016373  0.000000
  -0.016373  -0.016938  0.000000
  0.000000  0.000000  0.000000

  0.024290  -0.017024  0.000000
  -0.017024  -0.017002  0.000000
  0.000000  0.000000  0.000000

  0.031499  -0.011256  0.000000
  -0.011256  -0.017529  0.000000
  0.000000  0.000000  0.000000

  0.024814  -0.018026  0.000000
  -0.018026  -0.015101  0.000000
  0.000000  0.000000  0.000000

  0.027100  -0.013409  0.000000
  -0.013409  -0.016053  0.000000
  0.000000  0.000000  0.000000

  0.025665  -0.011893  0.000000
  -0.011893  -0.017598  0.000000
  0.000000  0.000000  0.000000

  0.028112  -0.008647  0.000000
  -0.008647  -0.016072  0.000000
  0.000000  0.000000  0.000000

  0.028867  -0.009042  0.000000
  -0.009042  -0.018895  0.000000
  0.000000  0.000000  0.000000

  0.031530  -0.005991  0.000000
  -0.005991  -0.016912  0.000000
  0.000000  0.000000  0.000000

  0.025403  -0.006638  0.000000
  -0.006638  -0.016854  0.000000
  0.000000  0.000000  0.000000

  0.027362  -0.004095  0.000000
  -0.004095  -0.014943  0.000000
  0.000000  0.000000  0.000000

  0.027743  -0.003318  0.000000
  -0.003318  -0.017258  0.000000
  0.000000  0.000000  0.000000

  0.022366  -0.004869  0.000000
  -0.004869  -0.014945  0.000000
  0.000000  0.000000  0.000000

  0.023799  -0.001828  0.000000
  -0.001828  -0.015264  0.000000
  0.000000  0.000000  0.000000

  0.023091  -0.009413  0.000000
  -0.009413  -0.016178  0.000000
  0.000000  0.000000  0.000000

  0.024755  -0.007147  0.000000
  -0.007147  -0.014506  0.000000
  0.000000  0.000000  0.000000

  0.020218  -0.007849  0.000000
  -0.007849  -0.014569  0.000000
  0.000000  0.000000  0.000000

  0.021968  -0.009618  0.000000
  -0.009618  -0.013681  0.000000
  0.000000  0.000000  0.000000

  0.021520  -0.006021  0.000000
  -0.006021  -0.012961  0.000000
  0.000000  0.000000  0.000000

  0.023292  -0.003576  0.000000
  -0.003576  -0.013304  0.000000
  0.000000  0.000000  0.000000

  0.029909  -0.000399  0.000000
  -0.000399  -0.014940  0.000000
  0.000000  0.000000  0.000000

  0.024664  0.002696  0.000000
  0.002696  -0.014355  0.000000
  0.000000  0.000000  0.000000

  0.024862  0.003459  0.000000
  0.003459  -0.011927  0.000000
  0.000000  0.000000  0.000000

  0.031481  0.004054  0.000000
  0.004054  -0.014085  0.000000
  0.000000  0.000000  0.000000

  0.042710  -0.002944  0.000000
  -0.002944  -0.019659  0.000000
  0.000000  0.000000  0.000000

  0.024934  0.000108  0.000000
  0.000108  -0.012821  0.000000
  0.000000  0.000000  0.000000

  0.016469  -0.028277  0.000000
  -0.028277  -0.012407  0.000000
  0.000000  0.000000  0.000000

  0.033993  -0.001962  0.000000
  -0.001962  -0.017007  0.000000
  0.000000  0.000000  0.000000

  0.029643  0.001705  0.000000
  0.001705  -0.015808  0.000000
  0.000000  0.000000  0.000000

  0.033658  0.002372  0.000000
  0.002372  -0.016003  0.000000
  0.000000  0.000000  0.000000

  0.024044  0.010661  0.000000
  0.010661  -0.011653  0.000000
  0.000000  0.000000  0.000000

  0.034780  0.002073  0.000000
  0.002073  -0.018165  0.000000
  0.000000  0.000000  0.000000

  0.015584  -0.030753  0.000000
  -0.030753  -0.011505  0.000000
  0.000000  0.000000  0.000000

  0.013648  -0.029859  0.000000
  -0.029859  -0.009635  0.000000
  0.000000  0.000000  0.000000

  0.009599  -0.033016  0.000000
  -0.033016  -0.008737  0.000000
  0.000000  0.000000  0.000000

  0.006902  -0.031523  0.000000
  -0.031523  -0.006696  0.000000
  0.000000  0.000000  0.000000

  0.011970  -0.030966  0.000000
  -0.030966  -0.009861  0.000000
  0.000000  0.000000  0.000000

  0.003296  -0.034546  0.000000
  -0.034546  -0.005938  0.000000
  0.000000  0.000000  0.000000

  0.005753  -0.032832  0.000000
  -0.032832  -0.006858  0.000000
  0.000000  0.000000  0.000000

  0.021901  -0.024717  0.000000
  -0.024717  -0.014996  0.000000
  0.000000  0.000000  0.000000

  0.021176  -0.021154  0.000000
  -0.021154  -0.015444  0.000000
  0.000000  0.000000  0.000000

  0.021376  -0.021931  0.000000
  -0.021931  -0.013446  0.000000
  0.000000  0.000000  0.000000

  0.025713  -0.020503  0.000000
  -0.020503  -0.015360  0.000000
  0.000000  0.000000  0.000000

  0.017329  -0.025187  0.000000
  -0.025187  -0.013218  0.000000
  0.000000  0.000000  0.000000

  0.017444  -0.022346  0.000000
  -0.022346  -0.013487  0.000000
  0.000000  0.000000  0.000000

  0.015781  -0.024987  0.000000
  -0.024987  -0.010944  0.000000
  0.000000  0.000000  0.000000

  0.020104  -0.018398  0.000000
  -0.018398  -0.015110  0.000000
  0.000000  0.000000  0.000000

  0.022231  -0.013990  0.000000
  -0.013990  -0.016122  0.000000
  0.000000  0.000000  0.000000

  0.008988  -0.029693  0.000000
  -0.029693  -0.007583  0.000000
  0.000000  0.000000  0.000000

  0.014993  -0.027498  0.000000
  -0.027498  -0.010438  0.000000
  0.000000  0.000000  0.000000

  0.012654  -0.028392  0.000000
  -0.028392  -0.010520  0.000000
  0.000000  0.000000  0.000000

  0.011108  -0.027545  0.000000
  -0.027545  -0.008324  0.000000
  0.000000  0.000000  0.000000

  0.020106  -0.011572  0.000000
  -0.011572  -0.014973  0.000000
  0.000000  0.000000  0.000000

  0.021575  -0.013189  0.000000
  -0.013189  -0.013557  0.000000
  0.000000  0.000000  0.000000

  0.024607  -0.010931  0.000000
  -0.010931  -0.014886  0.000000
  0.000000  0.000000  0.000000

  0.018871  -0.015719  0.000000
  -0.015719  -0.014503  0.000000
  0.000000  0.000000  0.000000

  0.019217  -0.016643  0.000000
  -0.016643  -0.012668  0.000000
  0.000000  0.000000  0.000000

  0.017534  -0.013578  0.000000
  -0.013578  -0.013595  0.000000
  0.000000  0.000000  0.000000

  0.016740  -0.019554  0.000000
  -0.019554  -0.013214  0.000000
  0.000000  0.000000  0.000000

  0.020332  -0.019159  0.000000
  -0.019159  -0.013185  0.000000
  0.000000  0.000000  0.000000

  0.016066  -0.016731  0.000000
  -0.016731  -0.012627  0.000000
  0.000000  0.000000  0.000000

  0.016451  -0.022360  0.000000
  -0.022360  -0.011229  0.000000
  0.000000  0.000000  0.000000

  0.013459  -0.025318  0.000000
  -0.025318  -0.010991  0.000000
  0.000000  0.000000  0.000000

  0.011819  -0.024892  0.000000
  -0.024892  -0.008894  0.000000
  0.000000  0.000000  0.000000

  0.008800  -0.027801  0.000000
  -0.027801  -0.008312  0.000000
  0.000000  0.000000  0.000000

  0.010125  -0.024969  0.000000
  -0.024969  -0.008889  0.000000
  0.000000  0.000000  0.000000

  0.019343  -0.011347  0.000000
  -0.011347  -0.012641  0.000000
  0.000000  0.000000  0.000000

  0.017828  -0.006685  0.000000
  -0.006685  -0.013054  0.000000
  0.000000  0.000000  0.000000

  0.032879  0.009188  0.000000
  0.009188  -0.016292  0.000000
  0.000000  0.000000  0.000000

  0.018059  -0.010082  0.000000
  -0.010082  -0.013693  0.000000
  0.000000  0.000000  0.000000

  0.019614  -0.008185  0.000000
  -0.008185  -0.012382  0.000000
  0.000000  0.000000  0.000000

  0.016188  -0.008616  0.000000
  -0.008616  -0.012387  0.000000
  0.000000  0.000000  0.000000

  0.019096  -0.004269  0.000000
  -0.004269  -0.013325  0.000000
  0.000000  0.000000  0.000000

  0.019796  -0.003136  0.000000
  -0.003136  -0.011603  0.000000
  0.000000  0.000000  0.000000

  0.016765  -0.003873  0.000000
  -0.003873  -0.011632  0.000000
  0.000000  0.000000  0.000000

  0.017284  -0.001432  0.000000
  -0.001432  -0.011549  0.000000
  0.000000  0.000000  0.000000

  0.017859  -0.014337  0.000000
  -0.014337  -0.012070  0.000000
  0.000000  0.000000  0.000000

  0.014913  -0.014631  0.000000
  -0.014631  -0.012098  0.000000
  0.000000  0.000000  0.000000

  0.014887  -0.015167  0.000000
  -0.015167  -0.010516  0.000000
  0.000000  0.000000  0.000000

  0.016506  -0.012466  0.000000
  -0.012466  -0.011357  0.000000
  0.000000  0.000000  0.000000

  0.018632  -0.005464  0.000000
  -0.005464  -0.011587  0.000000
  0.000000  0.000000  0.000000

  0.015644  -0.006097  0.000000
  -0.006097  -0.011651  0.000000
  0.000000  0.000000  0.000000

  0.017136  -0.007448  0.000000
  -0.007448  -0.011241  0.000000
  0.000000  0.000000  0.000000

  0.016348  -0.005060  0.000000
  -0.005060  -0.010474  0.000000
  0.000000  0.000000  0.000000

  0.017141  -0.003194  0.000000
  -0.003194  -0.010408  0.000000
  0.000000  0.000000  0.000000

  0.017747  -0.000403  0.000000
  -0.000403  -0.009587  0.000000
  0.000000  0.000000  0.000000

  0.020386  -0.000797  0.000000
  -0.000797  -0.011502  0.000000
  0.000000  0.000000  0.000000

  0.046720  -0.014766  0.000000
  -0.014766  -0.013799  0.000000
  0.000000  0.000000  0.000000

  0.054665  -0.015738  0.000000
  -0.015738  -0.019391  0.000000
  0.000000  0.000000  0.000000

  0.020585  0.002426  0.000000
  0.002426  -0.011923  0.000000
  0.000000  0.000000  0.000000

  0.019973  0.002336  0.000000
  0.002336  -0.010387  0.000000
  0.000000  0.000000  0.000000

  0.024213  0.006771  0.000000
  0.006771  -0.012815  0.000000
  0.000000  0.000000  0.000000

  0.014596  -0.003859  0.000000
  -0.003859  -0.010444  0.000000
  0.000000  0.000000  0.000000

  0.015180  -0.003018  0.000000
  -0.003018  -0.009427  0.000000
  0.000000  0.000000  0.000000

  0.012809  -0.003548  0.000000
  -0.003548  -0.009459  0.000000
  0.000000  0.000000  0.000000

  0.012956  -0.001707  0.000000
  -0.001707  -0.008690  0.000000
  0.000000  0.000000  0.000000

  0.019746  0.006205  0.000000
  0.006205  -0.010191  0.000000
  0.000000  0.000000  0.000000

  0.013880  -0.005587  0.000000
  -0.005587  -0.010546  0.000000
  0.000000  0.000000  0.000000

  -0.019037  -0.032063  0.000000
  -0.032063  0.010787  0.000000
  0.000000  0.000000  0.000000

  0.004686  -0.035396  0.000000
  -0.035396  -0.006528  0.000000
  0.000000  0.000000  0.000000

  0.017407  -0.009908  0.000000
  -0.009908  -0.011578  0.000000
  0.000000  0.000000  0.000000

  0.014346  -0.010220  0.000000
  -0.010220  -0.011585  0.000000
  0.000000  0.000000  0.000000

  0.016105  -0.011686  0.000000
  -0.011686  -0.012676  0.000000
  0.000000  0.000000  0.000000

  0.015202  -0.011300  0.000000
  -0.011300  -0.010619  0.000000
  0.000000  0.000000  0.000000

  0.015418  -0.008877  0.000000
  -0.008877  -0.010613  0.000000
  0.000000  0.000000  0.000000

  0.013685  -0.012690  0.000000
  -0.012690  -0.011364  0.000000
  0.000000  0.000000  0.000000

  0.014223  -0.013552  0.000000
  -0.013552  -0.009985  0.000000
  0.000000  0.000000  0.000000

  0.012325  -0.015216  0.000000
  -0.015216  -0.010503  0.000000
  0.000000  0.000000  0.000000

  0.012341  -0.015743  0.000000
  -0.015743  -0.008966  0.000000
  0.000000  0.000000  0.000000

  0.011801  -0.013641  0.000000
  -0.013641  -0.009969  0.000000
  0.000000  0.000000  0.000000

  0.010362  -0.017558  0.000000
  -0.017558  -0.009246  0.000000
  0.000000  0.000000  0.000000

  0.010249  -0.015636  0.000000
  -0.015636  -0.008902  0.000000
  0.000000  0.000000  0.000000

  0.011567  -0.013943  0.000000
  -0.013943  -0.008707  0.000000
  0.000000  0.000000  0.000000

  0.009834  -0.013810  0.000000
  -0.013810  -0.008644  0.000000
  0.000000  0.000000  0.000000

  0.013023  -0.012025  0.000000
  -0.012025  -0.009589  0.000000
  0.000000  0.000000  0.000000

  0.009458  -0.013990  0.000000
  -0.013990  -0.007462  0.000000
  0.000000  0.000000  0.000000

  0.010992  -0.012303  0.000000
  -0.012303  -0.008415  0.000000
  0.000000  0.000000  0.000000

  0.012933  -0.017643  0.000000
  -0.017643  -0.009244  0.000000
  0.000000  0.000000  0.000000

  0.009929  -0.017732  0.000000
  -0.017732  -0.007481  0.000000
  0.000000  0.000000  0.000000

  0.009616  -0.015732  0.000000
  -0.015732  -0.007499  0.000000
  0.000000  0.000000  0.000000

  0.012667  -0.011394  0.000000
  -0.011394  -0.010610  0.000000
  0.000000  0.000000  0.000000

  0.013920  -0.009948  0.000000
  -0.009948  -0.009887  0.000000
  0.000000  0.000000  0.000000

  0.011654  -0.009975  0.000000
  -0.009975  -0.009886  0.000000
  0.000000  0.000000  0.000000

  0.013047  -0.009098  0.000000
  -0.009098  -0.010631  0.000000
  0.000000  0.000000  0.000000

  0.013976  -0.007964  0.000000
  -0.007964  -0.009878  0.000000
  0.000000  0.000000  0.000000

  0.012114  -0.010642  0.000000
  -0.010642  -0.008996  0.000000
  0.000000  0.000000  0.000000

  0.010174  -0.010690  0.000000
  -0.010690  -0.008995  0.000000
  0.000000  0.000000  0.000000

  0.010416  -0.011175  0.000000
  -0.011175  -0.008031  0.000000
  0.000000  0.000000  0.000000

  0.011019  -0.009566  0.000000
  -0.009566  -0.008505  0.000000
  0.000000  0.000000  0.000000

  0.011802  -0.008130  0.000000
  -0.008130  -0.009886  0.000000
  0.000000  0.000000  0.000000

  0.012809  -0.007025  0.000000
  -0.007025  -0.010272  0.000000
  0.000000  0.000000  0.000000

  0.013576  -0.006081  0.000000
  -0.006081  -0.009498  0.000000
  0.000000  0.000000  0.000000

  0.011428  -0.006307  0.000000
  -0.006307  -0.009502  0.000000
  0.000000  0.000000  0.000000

  0.012468  -0.005234  0.000000
  -0.005234  -0.009654  0.000000
  0.000000  0.000000  0.000000

  0.012907  -0.004576  0.000000
  -0.004576  -0.008917  0.000000
  0.000000  0.000000  0.000000

  0.014404  -0.004806  0.000000
  -0.004806  -0.009610  0.000000
  0.000000  0.000000  0.000000

  0.010880  -0.004869  0.000000
  -0.004869  -0.008941  0.000000
  0.000000  0.000000  0.000000

  0.011294  -0.003658  0.000000
  -0.003658  -0.008459  0.000000
  0.000000  0.000000  0.000000

  0.011155  -0.011958  0.000000
  -0.011958  -0.009532  0.000000
  0.000000  0.000000  0.000000

  0.012584  -0.008975  0.000000
  -0.008975  -0.009239  0.000000
  0.000000  0.000000  0.000000

  0.008682  -0.011020  0.000000
  -0.011020  -0.008031  0.000000
  0.000000  0.000000  0.000000

  0.010593  -0.009006  0.000000
  -0.009006  -0.009239  0.000000
  0.000000  0.000000  0.000000

  0.011440  -0.008008  0.000000
  -0.008008  -0.008675  0.000000
  0.000000  0.000000  0.000000

  0.009788  -0.008017  0.000000
  -0.008017  -0.008675  0.000000
  0.000000  0.000000  0.000000

  0.010794  -0.007376  0.000000
  -0.007376  -0.009211  0.000000
  0.000000  0.000000  0.000000

  0.011531  -0.006476  0.000000
  -0.006476  -0.008671  0.000000
  0.000000  0.000000  0.000000

  0.012484  -0.007305  0.000000
  -0.007305  -0.009208  0.000000
  0.000000  0.000000  0.000000

  0.009778  -0.006551  0.000000
  -0.006551  -0.008674  0.000000
  0.000000  0.000000  0.000000

  0.010315  -0.005601  0.000000
  -0.005601  -0.008890  0.000000
  0.000000  0.000000  0.000000

  0.010635  -0.005206  0.000000
  -0.005206  -0.008423  0.000000
  0.000000  0.000000  0.000000

  0.009219  -0.012239  0.000000
  -0.012239  -0.008361  0.000000
  0.000000  0.000000  0.000000

  0.009290  -0.012646  0.000000
  -0.012646  -0.007298  0.000000
  0.000000  0.000000  0.000000

  0.007977  -0.013786  0.000000
  -0.013786  -0.007394  0.000000
  0.000000  0.000000  0.000000

  0.007605  -0.013939  0.000000
  -0.013939  -0.006207  0.000000
  0.000000  0.000000  0.000000

  0.007871  -0.012436  0.000000
  -0.012436  -0.007215  0.000000
  0.000000  0.000000  0.000000

  0.006299  -0.015129  0.000000
  -0.015129  -0.006098  0.000000
  0.000000  0.000000  0.000000

  0.006485  -0.013631  0.000000
  -0.013631  -0.006092  0.000000
  0.000000  0.000000  0.000000

  0.007375  -0.012485  0.000000
  -0.012485  -0.006196  0.000000
  0.000000  0.000000  0.000000

  0.006435  -0.012202  0.000000
  -0.012202  -0.006098  0.000000
  0.000000  0.000000  0.000000

  0.005912  -0.012177  0.000000
  -0.012177  -0.005239  0.000000
  0.000000  0.000000  0.000000

  0.007209  -0.011214  0.000000
  -0.011214  -0.006234  0.000000
  0.000000  0.000000  0.000000

  0.008717  -0.011326  0.000000
  -0.011326  -0.007068  0.000000
  0.000000  0.000000  0.000000

  0.007596  -0.011120  0.000000
  -0.011120  -0.007036  0.000000
  0.000000  0.000000  0.000000

  0.008156  -0.010070  0.000000
  -0.010070  -0.006922  0.000000
  0.000000  0.000000  0.000000

  0.007314  -0.009888  0.000000
  -0.009888  -0.006817  0.000000
  0.000000  0.000000  0.000000

  0.009723  -0.010029  0.000000
  -0.010029  -0.007750  0.000000
  0.000000  0.000000  0.000000

  0.009379  -0.009529  0.000000
  -0.009529  -0.008474  0.000000
  0.000000  0.000000  0.000000

  0.007061  -0.009985  0.000000
  -0.009985  -0.006240  0.000000
  0.000000  0.000000  0.000000

  0.007890  -0.009050  0.000000
  -0.009050  -0.007128  0.000000
  0.000000  0.000000  0.000000

  0.014333  -0.007873  0.000000
  -0.007873  -0.011265  0.000000
  0.000000  0.000000  0.000000

  0.015272  -0.006690  0.000000
  -0.006690  -0.010257  0.000000
  0.000000  0.000000  0.000000

  0.010437  -0.007255  0.000000
  -0.007255  -0.008171  0.000000
  0.000000  0.000000  0.000000

  0.008746  -0.007224  0.000000
  -0.007224  -0.008158  0.000000
  0.000000  0.000000  0.000000

  0.005691  -0.015043  0.000000
  -0.015043  -0.004879  0.000000
  0.000000  0.000000  0.000000

  0.010140  -0.008532  0.000000
  -0.008532  -0.007973  0.000000
  0.000000  0.000000  0.000000

  0.008642  -0.008424  0.000000
  -0.008424  -0.007972  0.000000
  0.000000  0.000000  0.000000

  0.007532  -0.015486  0.000000
  -0.015486  -0.006112  0.000000
  0.000000  0.000000  0.000000

  0.006151  -0.016830  0.000000
  -0.016830  -0.005951  0.000000
  0.000000  0.000000  0.000000

  0.008167  -0.015436  0.000000
  -0.015436  -0.007407  0.000000
  0.000000  0.000000  0.000000

  0.007265  -0.017258  0.000000
  -0.017258  -0.005968  0.000000
  0.000000  0.000000  0.000000

  0.005192  -0.016640  0.000000
  -0.016640  -0.004636  0.000000
  0.000000  0.000000  0.000000

  0.005830  -0.018889  0.000000
  -0.018889  -0.005522  0.000000
  0.000000  0.000000  0.000000

  0.005775  -0.013560  0.000000
  -0.013560  -0.005075  0.000000
  0.000000  0.000000  0.000000

  0.010168  -0.006055  0.000000
  -0.006055  -0.008191  0.000000
  0.000000  0.000000  0.000000

  0.003889  -0.017911  0.000000
  -0.017911  -0.004012  0.000000
  0.000000  0.000000  0.000000

  0.004407  -0.016177  0.000000
  -0.016177  -0.004522  0.000000
  0.000000  0.000000  0.000000

  0.003423  -0.015874  0.000000
  -0.015874  -0.003281  0.000000
  0.000000  0.000000  0.000000

  0.002229  -0.016892  0.000000
  -0.016892  -0.002774  0.000000
  0.000000  0.000000  0.000000

  0.002660  -0.015441  0.000000
  -0.015441  -0.003185  0.000000
  0.000000  0.000000  0.000000

  0.012113  -0.005518  0.000000
  -0.005518  -0.008892  0.000000
  0.000000  0.000000  0.000000

  0.011082  -0.003896  0.000000
  -0.003896  -0.008173  0.000000
  0.000000  0.000000  0.000000

  0.009283  -0.006557  0.000000
  -0.006557  -0.007727  0.000000
  0.000000  0.000000  0.000000

  0.000991  -0.016333  0.000000
  -0.016333  -0.001550  0.000000
  0.000000  0.000000  0.000000

  -0.014784  -0.030842  0.000000
  -0.030842  0.003475  0.000000
  0.000000  0.000000  0.000000

  -0.020414  -0.025843  0.000000
  -0.025843  0.002373  0.000000
  0.000000  0.000000  0.000000

  -0.024855  -0.027946  0.000000
  -0.027946  0.007285  0.000000
  0.000000  0.000000  0.000000

  -0.016563  -0.030884  0.000000
  -0.030884  0.001691  0.000000
  0.000000  0.000000  0.000000

  -0.028461  -0.023957  0.000000
  -0.023957  0.006984  0.000000
  0.000000  0.000000  0.000000

  -0.029942  -0.022462  0.000000
  -0.022462  0.004025  0.000000
  0.000000  0.000000  0.000000

  0.018077  -0.029103  0.000000
  -0.029103  -0.011177  0.000000
  0.000000  0.000000  0.000000

  0.013025  -0.017238  0.000000
  -0.017238  -0.010980  0.000000
  0.000000  0.000000  0.000000

  0.015737  -0.017166  0.000000
  -0.017166  -0.010978  0.000000
  0.000000  0.000000  0.000000

  0.013914  -0.019683  0.000000
  -0.019683  -0.011236  0.000000
  0.000000  0.000000  0.000000

  0.016218  -0.019713  0.000000
  -0.019713  -0.011272  0.000000
  0.000000  0.000000  0.000000

  0.012350  -0.019664  0.000000
  -0.019664  -0.009493  0.000000
  0.000000  0.000000  0.000000

  0.010693  -0.022213  0.000000
  -0.022213  -0.009154  0.000000
  0.000000  0.000000  0.000000

  0.012498  -0.022229  0.000000
  -0.022229  -0.009155  0.000000
  0.000000  0.000000  0.000000

  0.010744  -0.019540  0.000000
  -0.019540  -0.009333  0.000000
  0.000000  0.000000  0.000000

  0.009755  -0.019552  0.000000
  -0.019552  -0.007481  0.000000
  0.000000  0.000000  0.000000

  0.007595  -0.021415  0.000000
  -0.021415  -0.007324  0.000000
  0.000000  0.000000  0.000000

  0.007965  -0.019464  0.000000
  -0.019464  -0.007356  0.000000
  0.000000  0.000000  0.000000

  0.006978  -0.019283  0.000000
  -0.019283  -0.005637  0.000000
  0.000000  0.000000  0.000000

  0.009087  -0.021694  0.000000
  -0.021694  -0.007316  0.000000
  0.000000  0.000000  0.000000

  0.006399  -0.021056  0.000000
  -0.021056  -0.005369  0.000000
  0.000000  0.000000  0.000000

  0.004875  -0.020703  0.000000
  -0.020703  -0.005341  0.000000
  0.000000  0.000000  0.000000

  0.003748  -0.020298  0.000000
  -0.020298  -0.003509  0.000000
  0.000000  0.000000  0.000000

  0.007256  -0.024017  0.000000
  -0.024017  -0.006672  0.000000
  0.000000  0.000000  0.000000

  0.001667  -0.021735  0.000000
  -0.021735  -0.002867  0.000000
  0.000000  0.000000  0.000000

  0.002987  -0.019815  0.000000
  -0.019815  -0.003442  0.000000
  0.000000  0.000000  0.000000

  0.004310  -0.018453  0.000000
  -0.018453  -0.004112  0.000000
  0.000000  0.000000  0.000000

  0.007862  -0.024215  0.000000
  -0.024215  -0.006749  0.000000
  0.000000  0.000000  0.000000

  0.004692  -0.023247  0.000000
  -0.023247  -0.004874  0.000000
  0.000000  0.000000  0.000000

  0.002586  -0.022305  0.000000
  -0.022305  -0.002808  0.000000
  0.000000  0.000000  0.000000

  0.004302  -0.022803  0.000000
  -0.022803  -0.004701  0.000000
  0.000000  0.000000  0.000000

  0.000225  -0.023644  0.000000
  -0.023644  -0.002188  0.000000
  0.000000  0.000000  0.000000

  0.000579  -0.024226  0.000000
  -0.024226  -0.001958  0.000000
  0.000000  0.000000  0.000000

  -0.001243  -0.022755  0.000000
  -0.022755  -0.000370  0.000000
  0.000000  0.000000  0.000000

  -0.003395  -0.024100  0.000000
  -0.024100  0.000585  0.000000
  0.000000  0.000000  0.000000

  -0.001662  -0.022190  0.000000
  -0.022190  -0.000385  0.000000
  0.000000  0.000000  0.000000

  0.000199  -0.020837  0.000000
  -0.020837  -0.001152  0.000000
  0.000000  0.000000  0.000000

  -0.000264  -0.020365  0.000000
  -0.020365  -0.001166  0.000000
  0.000000  0.000000  0.000000

  -0.001810  -0.019335  0.000000
  -0.019335  0.000259  0.000000
  0.000000  0.000000  0.000000

  0.001355  -0.019213  0.000000
  -0.019213  -0.001964  0.000000
  0.000000  0.000000  0.000000

  0.003751  -0.014275  0.000000
  -0.014275  -0.003746  0.000000
  0.000000  0.000000  0.000000

  -0.022307  -0.030339  0.000000
  -0.030339  0.008918  0.000000
  0.000000  0.000000  0.000000

  -0.026352  -0.026231  0.000000
  -0.026231  0.008989  0.000000
  0.000000  0.000000  0.000000

  -0.031097  -0.028484  0.000000
  -0.028484  0.013952  0.000000
  0.000000  0.000000  0.000000

  -0.028320  -0.028132  0.000000
  -0.028132  0.013853  0.000000
  0.000000  0.000000  0.000000

  -0.039508  -0.022982  0.000000
  -0.022982  0.014191  0.000000
  0.000000  0.000000  0.000000

  0.009143  -0.007808  0.000000
  -0.007808  -0.007458  0.000000
  0.000000  0.000000  0.000000

  0.002537  -0.017386  0.000000
  -0.017386  -0.002812  0.000000
  0.000000  0.000000  0.000000

  0.001255  -0.018473  0.000000
  -0.018473  -0.001902  0.000000
  0.000000  0.000000  0.000000

  0.001846  -0.014719  0.000000
  -0.014719  -0.001753  0.000000
  0.000000  0.000000  0.000000

  0.000600  -0.035887  0.000000
  -0.035887  -0.005379  0.000000
  0.000000  0.000000  0.000000

  -0.003433  -0.033427  0.000000
  -0.033427  -0.002707  0.000000
  0.000000  0.000000  0.000000

  0.007390  -0.030293  0.000000
  -0.030293  -0.007676  0.000000
  0.000000  0.000000  0.000000

  0.004942  -0.029181  0.000000
  -0.029181  -0.005196  0.000000
  0.000000  0.000000  0.000000

  0.001636  -0.031813  0.000000
  -0.031813  -0.004387  0.000000
  0.000000  0.000000  0.000000

  0.004063  -0.029420  0.000000
  -0.029420  -0.005233  0.000000
  0.000000  0.000000  0.000000

  0.002753  -0.031358  0.000000
  -0.031358  -0.004396  0.000000
  0.000000  0.000000  0.000000

  -0.000288  -0.034046  0.000000
  -0.034046  -0.003980  0.000000
  0.000000  0.000000  0.000000

  0.000059  -0.032457  0.000000
  -0.032457  -0.003987  0.000000
  0.000000  0.000000  0.000000

  -0.004844  -0.031631  0.000000
  -0.031631  -0.000685  0.000000
  0.000000  0.000000  0.000000

  -0.002809  -0.034873  0.000000
  -0.034873  -0.003246  0.000000
  0.000000  0.000000  0.000000

  -0.009083  -0.033566  0.000000
  -0.033566  0.000491  0.000000
  0.000000  0.000000  0.000000

  -0.001362  -0.030031  0.000000
  -0.030031  -0.001858  0.000000
  0.000000  0.000000  0.000000

  0.000961  -0.027963  0.000000
  -0.027963  -0.002973  0.000000
  0.000000  0.000000  0.000000

  0.006627  -0.026732  0.000000
  -0.026732  -0.006064  0.000000
  0.000000  0.000000  0.000000

  0.005619  -0.026808  0.000000
  -0.026808  -0.006065  0.000000
  0.000000  0.000000  0.000000

  0.012951  -0.003181  0.000000
  -0.003181  -0.008577  0.000000
  0.000000  0.000000  0.000000

  -0.033288  -0.025705  0.000000
  -0.025705  0.013717  0.000000
  0.000000  0.000000  0.000000

  -0.039563  -0.020332  0.000000
  -0.020332  0.010740  0.000000
  0.000000  0.000000  0.000000

  -0.043307  -0.022814  0.000000
  -0.022814  0.017312  0.000000
  0.000000  0.000000  0.000000

  -0.034533  -0.024540  0.000000
  -0.024540  0.009755  0.000000
  0.000000  0.000000  0.000000

  -0.040326  -0.018508  0.000000
  -0.018508  0.005895  0.000000
  0.000000  0.000000  0.000000

  -0.046796  -0.021188  0.000000
  -0.021188  0.013287  0.000000
  0.000000  0.000000  0.000000

  -0.035004  -0.024586  0.000000
  -0.024586  0.005033  0.000000
  0.000000  0.000000  0.000000

  -0.049070  -0.016983  0.000000
  -0.016983  0.012601  0.000000
  0.000000  0.000000  0.000000

  -0.057766  -0.018949  0.000000
  -0.018949  0.022065  0.000000
  0.000000  0.000000  0.000000

  -0.052691  -0.020515  0.000000
  -0.020515  0.022506  0.000000
  0.000000  0.000000  0.000000

  -0.043722  -0.024502  0.000000
  -0.024502  0.022101  0.000000
  0.000000  0.000000  0.000000

  -0.062943  -0.017475  0.000000
  -0.017475  0.027282  0.000000
  0.000000  0.000000  0.000000

  -0.052491  -0.018998  0.000000
  -0.018998  0.018885  0.000000
  0.000000  0.000000  0.000000

  -0.042357  -0.017086  0.000000
  -0.017086  -0.000709  0.000000
  0.000000  0.000000  0.000000

  -0.031980  -0.022392  0.000000
  -0.022392  0.000778  0.000000
  0.000000  0.000000  0.000000

  0.006263  -0.009657  0.000000
  -0.009657  -0.006089  0.000000
  0.000000  0.000000  0.000000

  -0.003104  -0.024830  0.000000
  -0.024830  0.000668  0.000000
  0.000000  0.000000  0.000000

  -0.008180  -0.032792  0.000000
  -0.032792  -0.000116  0.000000
  0.000000  0.000000  0.000000

  0.008371  -0.009720  0.000000
  -0.009720  -0.007710  0.000000
  0.000000  0.000000  0.000000

  0.008974  -0.009071  0.000000
  -0.009071  -0.007467  0.000000
  0.000000  0.000000  0.000000

  0.034085  -0.018481  0.000000
  -0.018481  -0.008648  0.000000
  0.000000  0.000000  0.000000

  0.040351  -0.012641  0.000000
  -0.012641  -0.005971  0.000000
  0.000000  0.000000  0.000000

  0.035033  -0.022402  0.000000
  -0.022402  -0.004059  0.000000
  0.000000  0.000000  0.000000

  0.042279  -0.017982  0.000000
  -0.017982  -0.010469  0.000000
  0.000000  0.000000  0.000000

  0.040556  -0.012687  0.000000
  -0.012687  -0.006371  0.000000
  0.000000  0.000000  0.000000

  0.048352  -0.006493  0.000000
  -0.006493  -0.005553  0.000000
  0.000000  0.000000  0.000000

  0.020342  -0.001220  0.000000
  -0.001220  -0.013115  0.000000
  0.000000  0.000000  0.000000

  0.020943  -0.024698  0.000000
  -0.024698  -0.013182  0.000000
  0.000000  0.000000  0.000000

  -0.005309  -0.022686  0.000000
  -0.022686  0.002305  0.000000
  0.000000  0.000000  0.000000

  0.032262  -0.004319  0.000000
  -0.004319  -0.019819  0.000000
  0.000000  0.000000  0.000000

  -0.062934  -0.017538  0.000000
  -0.017538  0.026481  0.000000
  0.000000  0.000000  0.000000

  -0.011057  -0.033496  0.000000
  -0.033496  0.000558  0.000000
  0.000000  0.000000  0.000000

  -0.007187  -0.036543  0.000000
  -0.036543  -0.003033  0.000000
  0.000000  0.000000  0.000000

  0.023311  -0.015331  0.000000
  -0.015331  -0.014471  0.000000
  0.000000  0.000000  0.000000

  0.008145  -0.017410  0.000000
  -0.017410  -0.007465  0.000000
  0.000000  0.000000  0.000000

  -0.051220  -0.015458  0.000000
  -0.015458  0.007990  0.000000
  0.000000  0.000000  0.000000

  0.005016  -0.013152  0.000000
  -0.013152  -0.004949  0.000000
  0.000000  0.000000  0.000000

  0.004283  -0.012985  0.000000
  -0.012985  -0.004122  0.000000
  0.000000  0.000000  0.000000

  0.003562  -0.013656  0.000000
  -0.013656  -0.003335  0.000000
  0.000000  0.000000  0.000000

  0.003814  -0.012622  0.000000
  -0.012622  -0.004015  0.000000
  0.000000  0.000000  0.000000

  0.090762  -0.060266  0.000000
  -0.060266  -0.031873  0.000000
  0.000000  0.000000  0.000000

  0.006392  -0.010889  0.000000
  -0.010889  -0.006113  0.000000
  0.000000  0.000000  0.000000

  0.060525  -0.020658  0.000000
  -0.020658  -0.000771  0.000000
  0.000000  0.000000  0.000000

  -0.082738  -0.035961  0.000000
  -0.035961  0.043855  0.000000
  0.000000  0.000000  0.000000

  -0.036988  -0.013372  0.000000
  -0.013372  0.019903  0.000000
  0.000000  0.000000  0.000000

  0.010388  -0.002553  0.000000
  -0.002553  -0.007354  0.000000
  0.000000  0.000000  0.000000

  -0.055333  -0.022266  0.000000
  -0.022266  0.030293  0.000000
  0.000000  0.000000  0.000000

  -0.054277  -0.021012  0.000000
  -0.021012  0.023468  0.000000
  0.000000  0.000000  0.000000

  0.001938  -0.008389  0.000000
  -0.008389  -0.002545  0.000000
  0.000000  0.000000  0.000000

  0.040901  -0.040286  0.000000
  -0.040286  -0.018220  0.000000
  0.000000  0.000000  0.000000

  0.007853  -0.005061  0.000000
  -0.005061  -0.006969  0.000000
  0.000000  0.000000  0.000000

  -0.020253  -0.029871  0.000000
  -0.029871  0.007842  0.000000
  0.000000  0.000000  0.000000

  -0.018653  -0.030130  0.000000
  -0.030130  0.007864  0.000000
  0.000000  0.000000  0.000000

  -0.004950  -0.008969  0.000000
  -0.008969  0.003220  0.000000
  0.000000  0.000000  0.000000

  0.007116  -0.008864  0.000000
  -0.008864  -0.006679  0.000000
  0.000000  0.000000  0.000000

  0.049860  -0.009100  0.000000
  -0.009100  -0.001264  0.000000
  0.000000  0.000000  0.000000

  -0.001962  -0.009123  0.000000
  -0.009123  0.000901  0.000000
  0.000000  0.000000  0.000000

  -0.001683  -0.009466  0.000000
  -0.009466  0.001053  0.000000
  0.000000  0.000000  0.000000

  -0.001518  -0.009779  0.000000
  -0.009779  0.000391  0.000000
  0.000000  0.000000  0.000000

  -0.002330  -0.009745  0.000000
  -0.009745  0.001313  0.000000
  0.000000  0.000000  0.000000

  -0.000703  -0.009488  0.000000
  -0.009488  0.000274  0.000000
  0.000000  0.000000  0.000000

  -0.000534  -0.009671  0.000000
  -0.009671  -0.000414  0.000000
  0.000000  0.000000  0.000000

  0.000144  -0.009369  0.000000
  -0.009369  -0.000434  0.000000
  0.000000  0.000000  0.000000

  -0.000292  -0.009002  0.000000
  -0.009002  -0.000595  0.000000
  0.000000  0.000000  0.000000

  0.000151  -0.009392  0.000000
  -0.009392  -0.001157  0.000000
  0.000000  0.000000  0.000000

  -0.000040  -0.010003  0.000000
  -0.010003  -0.000316  0.000000
  0.000000  0.000000  0.000000

  0.000836  -0.008597  0.000000
  -0.008597  -0.001345  0.000000
  0.000000  0.000000  0.000000

  0.000966  -0.009715  0.000000
  -0.009715  -0.001093  0.000000
  0.000000  0.000000  0.000000

  -0.000995  -0.010185  0.000000
  -0.010185  0.000590  0.000000
  0.000000  0.000000  0.000000

  -0.002234  -0.010192  0.000000
  -0.010192  0.001479  0.000000
  0.000000  0.000000  0.000000

  -0.002713  -0.009352  0.000000
  -0.009352  0.001850  0.000000
  0.000000  0.000000  0.000000

  -0.003213  -0.009382  0.000000
  -0.009382  0.002320  0.000000
  0.000000  0.000000  0.000000

  0.000166  -0.010128  0.000000
  -0.010128  -0.001243  0.000000
  0.000000  0.000000  0.000000

  -0.000822  -0.010467  0.000000
  -0.010467  -0.000258  0.000000
  0.000000  0.000000  0.000000

  -0.000260  -0.010887  0.000000
  -0.010887  -0.000090  0.000000
  0.000000  0.000000  0.000000

  -0.000121  -0.011070  0.000000
  -0.011070  -0.001056  0.000000
  0.000000  0.000000  0.000000

  -0.001129  -0.011350  0.000000
  -0.011350  0.000048  0.000000
  0.000000  0.000000  0.000000

  0.000971  -0.009710  0.000000
  -0.009710  -0.001897  0.000000
  0.000000  0.000000  0.000000

  0.000883  -0.010598  0.000000
  -0.010598  -0.001033  0.000000
  0.000000  0.000000  0.000000

  0.000890  -0.011537  0.000000
  -0.011537  -0.000871  0.000000
  0.000000  0.000000  0.000000

  -0.000710  -0.011806  0.000000
  -0.011806  0.000204  0.000000
  0.000000  0.000000  0.000000

  -0.001507  -0.011022  0.000000
  -0.011022  0.000912  0.000000
  0.000000  0.000000  0.000000

  -0.002506  -0.011404  0.000000
  -0.011404  0.001097  0.000000
  0.000000  0.000000  0.000000

  -0.001961  -0.011891  0.000000
  -0.011891  0.001345  0.000000
  0.000000  0.000000  0.000000

  -0.002791  -0.010971  0.000000
  -0.010971  0.001950  0.000000
  0.000000  0.000000  0.000000

  -0.001895  -0.010550  0.000000
  -0.010550  0.000703  0.000000
  0.000000  0.000000  0.000000

  0.002016  -0.010021  0.000000
  -0.010021  -0.001821  0.000000
  0.000000  0.000000  0.000000

  -0.001709  -0.012335  0.000000
  -0.012335  0.000339  0.000000
  0.000000  0.000000  0.000000

  -0.001044  -0.012860  0.000000
  -0.012860  0.000558  0.000000
  0.000000  0.000000  0.000000

  -0.000818  -0.013192  0.000000
  -0.013192  -0.000635  0.000000
  0.000000  0.000000  0.000000

  -0.002189  -0.013410  0.000000
  -0.013410  0.000799  0.000000
  0.000000  0.000000  0.000000

  0.000393  -0.012625  0.000000
  -0.012625  -0.000621  0.000000
  0.000000  0.000000  0.000000

  0.000656  -0.012787  0.000000
  -0.012787  -0.001943  0.000000
  0.000000  0.000000  0.000000

  0.000328  -0.013704  0.000000
  -0.013704  -0.000436  0.000000
  0.000000  0.000000  0.000000

  -0.002712  -0.012842  0.000000
  -0.012842  0.001761  0.000000
  0.000000  0.000000  0.000000

  0.001979  -0.013323  0.000000
  -0.013323  -0.001789  0.000000
  0.000000  0.000000  0.000000

  -0.001688  -0.013920  0.000000
  -0.013920  0.000990  0.000000
  0.000000  0.000000  0.000000

  0.002082  -0.011987  0.000000
  -0.011987  -0.001932  0.000000
  0.000000  0.000000  0.000000

  -0.002995  -0.010532  0.000000
  -0.010532  0.001728  0.000000
  0.000000  0.000000  0.000000

  -0.000367  -0.012121  0.000000
  -0.012121  -0.000817  0.000000
  0.000000  0.000000  0.000000

  -0.003077  -0.012293  0.000000
  -0.012293  0.001572  0.000000
  0.000000  0.000000  0.000000

  -0.003474  -0.011750  0.000000
  -0.011750  0.002459  0.000000
  0.000000  0.000000  0.000000

  -0.004552  -0.012083  0.000000
  -0.012083  0.002813  0.000000
  0.000000  0.000000  0.000000

  -0.003716  -0.011258  0.000000
  -0.011258  0.002278  0.000000
  0.000000  0.000000  0.000000

  -0.004117  -0.010635  0.000000
  -0.010635  0.003004  0.000000
  0.000000  0.000000  0.000000

  -0.005087  -0.010890  0.000000
  -0.010890  0.003391  0.000000
  0.000000  0.000000  0.000000

  -0.004296  -0.010203  0.000000
  -0.010203  0.002822  0.000000
  0.000000  0.000000  0.000000

  -0.004274  -0.012647  0.000000
  -0.012647  0.003128  0.000000
  0.000000  0.000000  0.000000

  -0.004955  -0.011413  0.000000
  -0.011413  0.003700  0.000000
  0.000000  0.000000  0.000000

  -0.005799  -0.011645  0.000000
  -0.011645  0.004024  0.000000
  0.000000  0.000000  0.000000

  -0.005947  -0.012142  0.000000
  -0.012142  0.004344  0.000000
  0.000000  0.000000  0.000000

  -0.006381  -0.010551  0.000000
  -0.010551  0.004382  0.000000
  0.000000  0.000000  0.000000

  -0.005476  -0.010236  0.000000
  -0.010236  0.004456  0.000000
  0.000000  0.000000  0.000000

  0.000966  -0.011542  0.000000
  -0.011542  -0.002085  0.000000
  0.000000  0.000000  0.000000

  0.001820  -0.009242  0.000000
  -0.009242  -0.001811  0.000000
  0.000000  0.000000  0.000000

  -0.036736  -0.021860  0.000000
  -0.021860  0.018451  0.000000
  0.000000  0.000000  0.000000

  -0.015300  -0.006217  0.000000
  -0.006217  0.010761  0.000000
  0.000000  0.000000  0.000000

  -0.087093  -0.009877  0.000000
  -0.009877  0.045729  0.000000
  0.000000  0.000000  0.000000

  -0.017786  -0.005598  0.000000
  -0.005598  0.012241  0.000000
  0.000000  0.000000  0.000000

  0.008530  -0.004671  0.000000
  -0.004671  -0.007359  0.000000
  0.000000  0.000000  0.000000

  0.008063  -0.005321  0.000000
  -0.005321  -0.007665  0.000000
  0.000000  0.000000  0.000000

  0.007386  -0.005589  0.000000
  -0.005589  -0.007175  0.000000
  0.000000  0.000000  0.000000

  0.005134  -0.011838  0.000000
  -0.011838  -0.005141  0.000000
  0.000000  0.000000  0.000000

  -0.098395  -0.008203  0.000000
  -0.008203  0.051885  0.000000
  0.000000  0.000000  0.000000

  -0.003488  -0.021006  0.000000
  -0.021006  0.001302  0.000000
  0.000000  0.000000  0.000000

  0.010025  -0.003025  0.000000
  -0.003025  -0.007751  0.000000
  0.000000  0.000000  0.000000

  0.009975  -0.004075  0.000000
  -0.004075  -0.008127  0.000000
  0.000000  0.000000  0.000000

  0.008773  -0.003276  0.000000
  -0.003276  -0.007754  0.000000
  0.000000  0.000000  0.000000

  0.001174  -0.008821  0.000000
  -0.008821  -0.001940  0.000000
  0.000000  0.000000  0.000000

  -0.011350  -0.007267  0.000000
  -0.007267  0.008051  0.000000
  0.000000  0.000000  0.000000

  0.014068  0.009851  0.000000
  0.009851  -0.002565  0.000000
  0.000000  0.000000  0.000000

  -0.065426  -0.019598  0.000000
  -0.019598  0.032111  0.000000
  0.000000  0.000000  0.000000

  -0.001451  -0.030234  0.000000
  -0.030234  -0.001864  0.000000
  0.000000  0.000000  0.000000

  -0.001151  -0.014534  0.000000
  -0.014534  -0.000288  0.000000
  0.000000  0.000000  0.000000

  0.016280  0.004576  0.000000
  0.004576  -0.008195  0.000000
  0.000000  0.000000  0.000000

  0.014687  -0.001429  0.000000
  -0.001429  -0.009753  0.000000
  0.000000  0.000000  0.000000

  -0.025711  -0.028073  0.000000
  -0.028073  0.004179  0.000000
  0.000000  0.000000  0.000000

  -0.022006  -0.025856  0.000000
  -0.025856  -0.000613  0.000000
  0.000000  0.000000  0.000000

  -0.019299  -0.032092  0.000000
  -0.032092  -0.000083  0.000000
  0.000000  0.000000  0.000000

  0.034940  0.020869  0.000000
  0.020869  -0.005194  0.000000
  0.000000  0.000000  0.000000

  0.024098  0.007123  0.000000
  0.007123  -0.010036  0.000000
  0.000000  0.000000  0.000000

  -0.003470  -0.020373  0.000000
  -0.020373  0.001280  0.000000
  0.000000  0.000000  0.000000

  -0.005259  -0.019123  0.000000
  -0.019123  0.002661  0.000000
  0.000000  0.000000  0.000000

  -0.006484  -0.019760  0.000000
  -0.019760  0.003852  0.000000
  0.000000  0.000000  0.000000

  -0.004547  -0.018464  0.000000
  -0.018464  0.002638  0.000000
  0.000000  0.000000  0.000000

  -0.005487  -0.013059  0.000000
  -0.013059  0.003432  0.000000
  0.000000  0.000000  0.000000

  -0.005158  -0.013580  0.000000
  -0.013580  0.003720  0.000000
  0.000000  0.000000  0.000000

  -0.004723  -0.014420  0.000000
  -0.014420  0.002649  0.000000
  0.000000  0.000000  0.000000

  -0.006572  -0.014098  0.000000
  -0.014098  0.004002  0.000000
  0.000000  0.000000  0.000000

  -0.056980  -0.023557  0.000000
  -0.023557  0.027179  0.000000
  0.000000  0.000000  0.000000

  0.004823  -0.014655  0.000000
  -0.014655  -0.004840  0.000000
  0.000000  0.000000  0.000000

  0.073702  0.008569  0.000000
  0.008569  -0.020143  0.000000
  0.000000  0.000000  0.000000

  0.008744  -0.005973  0.000000
  -0.005973  -0.008195  0.000000
  0.000000  0.000000  0.000000

  -0.031992  -0.031303  0.000000
  -0.031303  0.004586  0.000000
  0.000000  0.000000  0.000000

  0.019101  0.005488  0.000000
  0.005488  -0.008234  0.000000
  0.000000  0.000000  0.000000

  0.000968  -0.027812  0.000000
  -0.027812  -0.002947  0.000000
  0.000000  0.000000  0.000000

  0.012577  0.001213  0.000000
  0.001213  -0.006362  0.000000
  0.000000  0.000000  0.000000

  -0.013764  -0.035045  0.000000
  -0.035045  -0.002055  0.000000
  0.000000  0.000000  0.000000

  -0.034784  -0.028630  0.000000
  -0.028630  -0.002093  0.000000
  0.000000  0.000000  0.000000

  -0.007104  -0.012435  0.000000
  -0.012435  0.004809  0.000000
  0.000000  0.000000  0.000000

  0.004964  -0.031987  0.000000
  -0.031987  -0.006249  0.000000
  0.000000  0.000000  0.000000

  -0.003274  -0.031378  0.000000
  -0.031378  -0.000647  0.000000
  0.000000  0.000000  0.000000

  -0.003888  -0.013365  0.000000
  -0.013365  0.002137  0.000000
  0.000000  0.000000  0.000000

  -0.003263  -0.013901  0.000000
  -0.013901  0.002363  0.000000
  0.000000  0.000000  0.000000

  -0.003016  -0.014583  0.000000
  -0.014583  0.001179  0.000000
  0.000000  0.000000  0.000000

  -0.002260  -0.015096  0.000000
  -0.015096  0.001341  0.000000
  0.000000  0.000000  0.000000

  -0.001749  -0.015893  0.000000
  -0.015893  0.000147  0.000000
  0.000000  0.000000  0.000000

  -0.003542  -0.015804  0.000000
  -0.015804  0.001862  0.000000
  0.000000  0.000000  0.000000

  -0.001393  -0.016436  0.000000
  -0.016436  0.000175  0.000000
  0.000000  0.000000  0.000000

  -0.004555  -0.016347  0.000000
  -0.016347  0.002003  0.000000
  0.000000  0.000000  0.000000

  -0.004779  -0.016500  0.000000
  -0.016500  0.003546  0.000000
  0.000000  0.000000  0.000000

  -0.006298  -0.017099  0.000000
  -0.017099  0.003421  0.000000
  0.000000  0.000000  0.000000

  -0.006016  -0.015791  0.000000
  -0.015791  0.003224  0.000000
  0.000000  0.000000  0.000000

  -0.004528  -0.015042  0.000000
  -0.015042  0.003015  0.000000
  0.000000  0.000000  0.000000

  -0.000207  -0.017318  0.000000
  -0.017318  -0.000839  0.000000
  0.000000  0.000000  0.000000

  -0.000555  -0.017820  0.000000
  -0.017820  -0.000851  0.000000
  0.000000  0.000000  0.000000

  -0.001182  -0.018721  0.000000
  -0.018721  0.000232  0.000000
  0.000000  0.000000  0.000000

  -0.002531  -0.017093  0.000000
  -0.017093  0.001244  0.000000
  0.000000  0.000000  0.000000

  0.016995  0.007944  0.000000
  0.007944  -0.005987  0.000000
  0.000000  0.000000  0.000000

  0.018734  0.009537  0.000000
  0.009537  -0.007534  0.000000
  0.000000  0.000000  0.000000

  0.014704  0.007259  0.000000
  0.007259  -0.006066  0.000000
  0.000000  0.000000  0.000000

  0.003204  -0.012669  0.000000
  -0.012669  -0.002866  0.000000
  0.000000  0.000000  0.000000

  0.001984  -0.013325  0.000000
  -0.013325  -0.002949  0.000000
  0.000000  0.000000  0.000000

  0.013466  0.002650  0.000000
  0.002650  -0.007079  0.000000
  0.000000  0.000000  0.000000

  0.015726  0.000630  0.000000
  0.000630  -0.009616  0.000000
  0.000000  0.000000  0.000000

  0.018267  0.001565  0.000000
  0.001565  -0.009781  0.000000
  0.000000  0.000000  0.000000

  0.034661  0.013177  0.000000
  0.013177  -0.011106  0.000000
  0.000000  0.000000  0.000000

  0.013660  -0.022526  0.000000
  -0.022526  -0.011239  0.000000
  0.000000  0.000000  0.000000

  0.004561  -0.011768  0.000000
  -0.011768  -0.004324  0.000000
  0.000000  0.000000  0.000000

  0.004030  -0.011372  0.000000
  -0.011372  -0.004212  0.000000
  0.000000  0.000000  0.000000

  0.003531  -0.011351  0.000000
  -0.011351  -0.003399  0.000000
  0.000000  0.000000  0.000000

  0.004693  -0.010611  0.000000
  -0.010611  -0.004450  0.000000
  0.000000  0.000000  0.000000

  0.049247  -0.000005  0.000000
  -0.000005  -0.020630  0.000000
  0.000000  0.000000  0.000000

  0.048705  0.012843  0.000000
  0.012843  -0.015819  0.000000
  0.000000  0.000000  0.000000

  0.009482  -0.005250  0.000000
  -0.005250  -0.008274  0.000000
  0.000000  0.000000  0.000000

  0.002437  -0.011986  0.000000
  -0.011986  -0.002990  0.000000
  0.000000  0.000000  0.000000

  0.031916  0.009185  0.000000
  0.009185  -0.012102  0.000000
  0.000000  0.000000  0.000000

  0.024027  0.010824  0.000000
  0.010824  -0.007438  0.000000
  0.000000  0.000000  0.000000

  -0.026701  -0.030390  0.000000
  -0.030390  -0.000519  0.000000
  0.000000  0.000000  0.000000

  0.011145  -0.000197  0.000000
  -0.000197  -0.006155  0.000000
  0.000000  0.000000  0.000000

  0.010013  -0.001290  0.000000
  -0.001290  -0.006799  0.000000
  0.000000  0.000000  0.000000

  -0.049073  -0.021112  0.000000
  -0.021112  0.009342  0.000000
  0.000000  0.000000  0.000000

  -0.034987  -0.025912  0.000000
  -0.025912  -0.001338  0.000000
  0.000000  0.000000  0.000000

  -0.030739  -0.031955  0.000000
  -0.031955  0.000555  0.000000
  0.000000  0.000000  0.000000

  -0.042446  -0.027440  0.000000
  -0.027440  0.003761  0.000000
  0.000000  0.000000  0.000000

  -0.026333  -0.029528  0.000000
  -0.029528  -0.000913  0.000000
  0.000000  0.000000  0.000000

  -0.021593  -0.034058  0.000000
  -0.034058  -0.001100  0.000000
  0.000000  0.000000  0.000000

  -0.023767  -0.027459  0.000000
  -0.027459  -0.001164  0.000000
  0.000000  0.000000  0.000000

  -0.018564  -0.031330  0.000000
  -0.031330  -0.001336  0.000000
  0.000000  0.000000  0.000000

  -0.028363  -0.030328  0.000000
  -0.030328  0.011847  0.000000
  0.000000  0.000000  0.000000

  -0.025185  -0.026833  0.000000
  -0.026833  0.012228  0.000000
  0.000000  0.000000  0.000000

  -0.008994  -0.034230  0.000000
  -0.034230  0.000286  0.000000
  0.000000  0.000000  0.000000

  -0.033175  -0.025938  0.000000
  -0.025938  0.000251  0.000000
  0.000000  0.000000  0.000000

  0.005777  -0.007598  0.000000
  -0.007598  -0.005190  0.000000
  0.000000  0.000000  0.000000

  0.007580  -0.007906  0.000000
  -0.007906  -0.006550  0.000000
  0.000000  0.000000  0.000000

  -0.026240  -0.010531  0.000000
  -0.010531  0.016824  0.000000
  0.000000  0.000000  0.000000

  -0.003028  -0.008699  0.000000
  -0.008699  0.002443  0.000000
  0.000000  0.000000  0.000000

  0.000575  -0.014162  0.000000
  -0.014162  -0.001841  0.000000
  0.000000  0.000000  0.000000

  -0.023135  -0.031905  0.000000
  -0.031905  0.008142  0.000000
  0.000000  0.000000  0.000000

  -0.005242  -0.022171  0.000000
  -0.022171  0.002257  0.000000
  0.000000  0.000000  0.000000

  -0.002047  -0.026228  0.000000
  -0.026228  -0.001270  0.000000
  0.000000  0.000000  0.000000

  -0.002756  -0.027619  0.000000
  -0.027619  0.000431  0.000000
  0.000000  0.000000  0.000000

  -0.001061  -0.026385  0.000000
  -0.026385  -0.001245  0.000000
  0.000000  0.000000  0.000000

  0.003008  -0.025389  0.000000
  -0.025389  -0.004010  0.000000
  0.000000  0.000000  0.000000

  -0.005170  -0.028046  0.000000
  -0.028046  0.000356  0.000000
  0.000000  0.000000  0.000000

  -0.006153  -0.026969  0.000000
  -0.026969  0.001247  0.000000
  0.000000  0.000000  0.000000

  0.003344  -0.025522  0.000000
  -0.025522  -0.003998  0.000000
  0.000000  0.000000  0.000000

  -0.023486  -0.026153  0.000000
  -0.026153  0.010773  0.000000
  0.000000  0.000000  0.000000

  0.004573  -0.007658  0.000000
  -0.007658  -0.004435  0.000000
  0.000000  0.000000  0.000000

  -0.007605  -0.024217  0.000000
  -0.024217  0.003080  0.000000
  0.000000  0.000000  0.000000

  -0.006890  -0.024779  0.000000
  -0.024779  0.003263  0.000000
  0.000000  0.000000  0.000000

  -0.010340  -0.021986  0.000000
  -0.021986  0.005284  0.000000
  0.000000  0.000000  0.000000

  -0.015174  -0.008454  0.000000
  -0.008454  0.010599  0.000000
  0.000000  0.000000  0.000000

  -0.007786  -0.009654  0.000000
  -0.009654  0.005840  0.000000
  0.000000  0.000000  0.000000

  0.009580  -0.004054  0.000000
  -0.004054  -0.008093  0.000000
  0.000000  0.000000  0.000000

  -0.007628  -0.011432  0.000000
  -0.011432  0.005847  0.000000
  0.000000  0.000000  0.000000

  -0.008849  -0.011362  0.000000
  -0.011362  0.006234  0.000000
  0.000000  0.000000  0.000000

  -0.014036  -0.033193  0.000000
  -0.033193  -0.000520  0.000000
  0.000000  0.000000  0.000000

  0.005878  -0.009767  0.000000
  -0.009767  -0.005305  0.000000
  0.000000  0.000000  0.000000

  -0.006385  -0.014747  0.000000
  -0.014747  0.004375  0.000000
  0.000000  0.000000  0.000000

  -0.009638  -0.010297  0.000000
  -0.010297  0.006832  0.000000
  0.000000  0.000000  0.000000

  0.007355  -0.005707  0.000000
  -0.005707  -0.006946  0.000000
  0.000000  0.000000  0.000000

  0.000300  -0.015818  0.000000
  -0.015818  -0.001494  0.000000
  0.000000  0.000000  0.000000

  0.004152  -0.010203  0.000000
  -0.010203  -0.004330  0.000000
  0.000000  0.000000  0.000000

  0.003702  -0.010130  0.000000
  -0.010130  -0.003763  0.000000
  0.000000  0.000000  0.000000

  0.004725  -0.009545  0.000000
  -0.009545  -0.004533  0.000000
  0.000000  0.000000  0.000000

  0.002968  -0.008931  0.000000
  -0.008931  -0.002980  0.000000
  0.000000  0.000000  0.000000

  0.002782  -0.009372  0.000000
  -0.009372  -0.003473  0.000000
  0.000000  0.000000  0.000000

  0.002400  -0.008746  0.000000
  -0.008746  -0.002593  0.000000
  0.000000  0.000000  0.000000

  0.010867  -0.002287  0.000000
  -0.002287  -0.007737  0.000000
  0.000000  0.000000  0.000000

  -0.016697  -0.028782  0.000000
  -0.028782  0.007319  0.000000
  0.000000  0.000000  0.000000

  -0.015151  -0.028350  0.000000
  -0.028350  0.007275  0.000000
  0.000000  0.000000  0.000000

  -0.012904  -0.031645  0.000000
  -0.031645  0.004188  0.000000
  0.000000  0.000000  0.000000

  -0.010469  -0.030520  0.000000
  -0.030520  0.002099  0.000000
  0.000000  0.000000  0.000000

  0.013012  0.000076  0.000000
  0.000076  -0.008482  0.000000
  0.000000  0.000000  0.000000

  0.015757  0.001170  0.000000
  0.001170  -0.008047  0.000000
  0.000000  0.000000  0.000000

  -0.015282  -0.005728  0.000000
  -0.005728  0.011359  0.000000
  0.000000  0.000000  0.000000

  -0.007145  -0.013037  0.000000
  -0.013037  0.005180  0.000000
  0.000000  0.000000  0.000000

  -0.008475  -0.013420  0.000000
  -0.013420  0.005634  0.000000
  0.000000  0.000000  0.000000

  -0.008546  -0.013890  0.000000
  -0.013890  0.005927  0.000000
  0.000000  0.000000  0.000000

  -0.009193  -0.012066  0.000000
  -0.012066  0.006937  0.000000
  0.000000  0.000000  0.000000

  -0.007853  -0.015301  0.000000
  -0.015301  0.005167  0.000000
  0.000000  0.000000  0.000000

  -0.008438  -0.015996  0.000000
  -0.015996  0.005251  0.000000
  0.000000  0.000000  0.000000

  -0.006906  -0.017439  0.000000
  -0.017439  0.004838  0.000000
  0.000000  0.000000  0.000000

  -0.008476  -0.018163  0.000000
  -0.018163  0.004700  0.000000
  0.000000  0.000000  0.000000

  -0.009297  -0.016260  0.000000
  -0.016260  0.006464  0.000000
  0.000000  0.000000  0.000000

  -0.009883  -0.014067  0.000000
  -0.014067  0.006764  0.000000
  0.000000  0.000000  0.000000

  -0.010408  -0.016856  0.000000
  -0.016856  0.006533  0.000000
  0.000000  0.000000  0.000000

  -0.011018  -0.014786  0.000000
  -0.014786  0.007306  0.000000
  0.000000  0.000000  0.000000

  -0.011560  -0.014751  0.000000
  -0.014751  0.008161  0.000000
  0.000000  0.000000  0.000000

  -0.012937  -0.015193  0.000000
  -0.015193  0.008518  0.000000
  0.000000  0.000000  0.000000

  -0.013140  -0.013161  0.000000
  -0.013161  0.008376  0.000000
  0.000000  0.000000  0.000000

  -0.011750  -0.017615  0.000000
  -0.017615  0.007358  0.000000
  0.000000  0.000000  0.000000

  -0.010879  -0.018399  0.000000
  -0.018399  0.007590  0.000000
  0.000000  0.000000  0.000000

  -0.014078  -0.015246  0.000000
  -0.015246  0.009597  0.000000
  0.000000  0.000000  0.000000

  -0.013044  -0.012621  0.000000
  -0.012621  0.009699  0.000000
  0.000000  0.000000  0.000000

  -0.011079  -0.012329  0.000000
  -0.012329  0.008282  0.000000
  0.000000  0.000000  0.000000

  -0.015483  -0.015735  0.000000
  -0.015735  0.009952  0.000000
  0.000000  0.000000  0.000000

  -0.015337  -0.013061  0.000000
  -0.013061  0.009813  0.000000
  0.000000  0.000000  0.000000

  -0.014469  -0.011026  0.000000
  -0.011026  0.009482  0.000000
  0.000000  0.000000  0.000000

  -0.008898  -0.018301  0.000000
  -0.018301  0.006346  0.000000
  0.000000  0.000000  0.000000

  -0.011269  -0.019172  0.000000
  -0.019172  0.006202  0.000000
  0.000000  0.000000  0.000000

  -0.016643  -0.015846  0.000000
  -0.015846  0.010916  0.000000
  0.000000  0.000000  0.000000

  -0.011972  -0.010367  0.000000
  -0.010367  0.009343  0.000000
  0.000000  0.000000  0.000000

  -0.018338  -0.016714  0.000000
  -0.016714  0.011488  0.000000
  0.000000  0.000000  0.000000

  -0.018031  -0.013407  0.000000
  -0.013407  0.011561  0.000000
  0.000000  0.000000  0.000000

  -0.013691  -0.018845  0.000000
  -0.018845  0.008542  0.000000
  0.000000  0.000000  0.000000

  -0.013834  -0.010084  0.000000
  -0.010084  0.010874  0.000000
  0.000000  0.000000  0.000000

  -0.016908  -0.010681  0.000000
  -0.010681  0.010816  0.000000
  0.000000  0.000000  0.000000

  -0.014452  -0.008737  0.000000
  -0.008737  0.009978  0.000000
  0.000000  0.000000  0.000000

  -0.022593  -0.009359  0.000000
  -0.009359  0.015040  0.000000
  0.000000  0.000000  0.000000

  -0.021343  -0.009102  0.000000
  -0.009102  0.014053  0.000000
  0.000000  0.000000  0.000000

  -0.023299  -0.013233  0.000000
  -0.013233  0.015013  0.000000
  0.000000  0.000000  0.000000

  -0.007479  -0.020514  0.000000
  -0.020514  0.003893  0.000000
  0.000000  0.000000  0.000000

  -0.001463  -0.034846  0.000000
  -0.034846  0.001928  0.000000
  0.000000  0.000000  0.000000

  0.006806  -0.008905  0.000000
  -0.008905  -0.006201  0.000000
  0.000000  0.000000  0.000000

  -0.031688  -0.011795  0.000000
  -0.011795  0.019398  0.000000
  0.000000  0.000000  0.000000

  0.006694  -0.004999  0.000000
  -0.004999  -0.006944  0.000000
  0.000000  0.000000  0.000000

  0.005112  -0.010588  0.000000
  -0.010588  -0.005202  0.000000
  0.000000  0.000000  0.000000

  0.004156  -0.008414  0.000000
  -0.008414  -0.003983  0.000000
  0.000000  0.000000  0.000000

  0.004103  -0.008007  0.000000
  -0.008007  -0.004604  0.000000
  0.000000  0.000000  0.000000

  0.004519  -0.008292  0.000000
  -0.008292  -0.004698  0.000000
  0.000000  0.000000  0.000000

  0.004693  -0.009162  0.000000
  -0.009162  -0.004429  0.000000
  0.000000  0.000000  0.000000

  0.003672  -0.008924  0.000000
  -0.008924  -0.004240  0.000000
  0.000000  0.000000  0.000000

  0.012781  0.001645  0.000000
  0.001645  -0.006718  0.000000
  0.000000  0.000000  0.000000

  -0.030464  -0.021562  0.000000
  -0.021562  0.014414  0.000000
  0.000000  0.000000  0.000000

  0.007962  -0.006503  0.000000
  -0.006503  -0.007648  0.000000
  0.000000  0.000000  0.000000

  0.005920  -0.010935  0.000000
  -0.010935  -0.005307  0.000000
  0.000000  0.000000  0.000000

  0.002060  -0.010160  0.000000
  -0.010160  -0.002474  0.000000
  0.000000  0.000000  0.000000

  0.002070  -0.010618  0.000000
  -0.010618  -0.002779  0.000000
  0.000000  0.000000  0.000000

  -0.011689  -0.010504  0.000000
  -0.010504  0.008003  0.000000
  0.000000  0.000000  0.000000

  0.001034  -0.010591  0.000000
  -0.010591  -0.002120  0.000000
  0.000000  0.000000  0.000000

  -0.003404  -0.017935  0.000000
  -0.017935  0.001220  0.000000
  0.000000  0.000000  0.000000

  0.006605  -0.007228  0.000000
  -0.007228  -0.005962  0.000000
  0.000000  0.000000  0.000000

  -0.009966  -0.029669  0.000000
  -0.029669  0.003968  0.000000
  0.000000  0.000000  0.000000

  -0.016071  -0.035112  0.000000
  -0.035112  0.010210  0.000000
  0.000000  0.000000  0.000000

  0.007142  -0.006620  0.000000
  -0.006620  -0.006820  0.000000
  0.000000  0.000000  0.000000

  0.008172  -0.006849  0.000000
  -0.006849  -0.007151  0.000000
  0.000000  0.000000  0.000000

  -0.010713  -0.012314  0.000000
  -0.012314  0.007020  0.000000
  0.000000  0.000000  0.000000

  -0.008822  -0.021261  0.000000
  -0.021261  0.005209  0.000000
  0.000000  0.000000  0.000000

  0.004970  -0.009451  0.000000
  -0.009451  -0.005185  0.000000
  0.000000  0.000000  0.000000

  0.007650  -0.007699  0.000000
  -0.007699  -0.007423  0.000000
  0.000000  0.000000  0.000000

  0.003768  -0.009713  0.000000
  -0.009713  -0.003652  0.000000
  0.000000  0.000000  0.000000

  -0.017785  -0.012709  0.000000
  -0.012709  0.012722  0.000000
  0.000000  0.000000  0.000000

  -0.015766  -0.009239  0.000000
  -0.009239  0.011620  0.000000
  0.000000  0.000000  0.000000

  -0.013204  -0.027648  0.000000
  -0.027648  0.004746  0.000000
  0.000000  0.000000  0.000000

  0.006192  -0.007719  0.000000
  -0.007719  -0.006410  0.000000
  0.000000  0.000000  0.000000

  0.003076  -0.010790  0.000000
  -0.010790  -0.003266  0.000000
  0.000000  0.000000  0.000000

  -0.019286  -0.016607  0.000000
  -0.016607  0.012673  0.000000
  0.000000  0.000000  0.000000

  -0.022536  -0.016826  0.000000
  -0.016826  0.013010  0.000000
  0.000000  0.000000  0.000000

  -0.021064  -0.013429  0.000000
  -0.013429  0.013153  0.000000
  0.000000  0.000000  0.000000

  -0.026724  -0.013819  0.000000
  -0.013819  0.015793  0.000000
  0.000000  0.000000  0.000000

  -0.020085  -0.021168  0.000000
  -0.021168  0.012063  0.000000
  0.000000  0.000000  0.000000

  -0.023464  -0.016456  0.000000
  -0.016456  0.014708  0.000000
  0.000000  0.000000  0.000000

  -0.017489  -0.020614  0.000000
  -0.020614  0.010529  0.000000
  0.000000  0.000000  0.000000

  -0.023882  -0.021706  0.000000
  -0.021706  0.012605  0.000000
  0.000000  0.000000  0.000000

  -0.016508  -0.019862  0.000000
  -0.019862  0.010068  0.000000
  0.000000  0.000000  0.000000

  -0.015657  -0.023763  0.000000
  -0.023763  0.009106  0.000000
  0.000000  0.000000  0.000000

  -0.019120  -0.024920  0.000000
  -0.024920  0.008909  0.000000
  0.000000  0.000000  0.000000

  -0.015594  -0.020080  0.000000
  -0.020080  0.008693  0.000000
  0.000000  0.000000  0.000000

  -0.031002  -0.020965  0.000000
  -0.020965  0.017154  0.000000
  0.000000  0.000000  0.000000

  -0.033660  -0.018773  0.000000
  -0.018773  0.018231  0.000000
  0.000000  0.000000  0.000000

  -0.029346  -0.017484  0.000000
  -0.017484  0.016514  0.000000
  0.000000  0.000000  0.000000

  -0.011053  -0.022120  0.000000
  -0.022120  0.007632  0.000000
  0.000000  0.000000  0.000000

  -0.015945  -0.012868  0.000000
  -0.012868  0.011137  0.000000
  0.000000  0.000000  0.000000

  -0.023825  -0.021389  0.000000
  -0.021389  0.014322  0.000000
  0.000000  0.000000  0.000000

  0.008469  -0.005657  0.000000
  -0.005657  -0.007390  0.000000
  0.000000  0.000000  0.000000

  0.074784  0.003356  0.000000
  0.003356  -0.033586  0.000000
  0.000000  0.000000  0.000000

  0.009148  -0.005387  0.000000
  -0.005387  -0.007737  0.000000
  0.000000  0.000000  0.000000

  0.008900  -0.005147  0.000000
  -0.005147  -0.007965  0.000000
  0.000000  0.000000  0.000000

  0.001811  -0.009139  0.000000
  -0.009139  -0.002762  0.000000
  0.000000  0.000000  0.000000

  0.002795  -0.009479  0.000000
  -0.009479  -0.002652  0.000000
  0.000000  0.000000  0.000000

  -0.010110  -0.036607  0.000000
  -0.036607  -0.002820  0.000000
  0.000000  0.000000  0.000000

  0.006434  -0.008418  0.000000
  -0.008418  -0.005994  0.000000
  0.000000  0.000000  0.000000

  0.004969  -0.008107  0.000000
  -0.008107  -0.005251  0.000000
  0.000000  0.000000  0.000000

  -0.012565  -0.008729  0.000000
  -0.008729  0.008709  0.000000
  0.000000  0.000000  0.000000

  -0.000305  -0.015113  0.000000
  -0.015113  -0.000203  0.000000
  0.000000  0.000000  0.000000

  0.001678  -0.006778  0.000000
  -0.006778  -0.002204  0.000000
  0.000000  0.000000  0.000000

  0.002884  -0.006210  0.000000
  -0.006210  -0.003384  0.000000
  0.000000  0.000000  0.000000

  0.006018  -0.002997  0.000000
  -0.002997  -0.006273  0.000000
  0.000000  0.000000  0.000000

  -0.067918  -0.017492  0.000000
  -0.017492  0.033435  0.000000
  0.000000  0.000000  0.000000

  -0.020087  0.006281  0.000000
  0.006281  0.011478  0.000000
  0.000000  0.000000  0.000000

  -0.010272  -0.002898  0.000000
  -0.002898  0.007875  0.000000
  0.000000  0.000000  0.000000

  -0.007896  -0.004833  0.000000
  -0.004833  0.006301  0.000000
  0.000000  0.000000  0.000000

  -0.007021  -0.005475  0.000000
  -0.005475  0.005614  0.000000
  0.000000  0.000000  0.000000

  -0.026055  0.010655  0.000000
  0.010655  0.012975  0.000000
  0.000000  0.000000  0.000000

  -0.005468  -0.006329  0.000000
  -0.006329  0.004273  0.000000
  0.000000  0.000000  0.000000

  0.003994  -0.005567  0.000000
  -0.005567  -0.004358  0.000000
  0.000000  0.000000  0.000000

  -0.000176  -0.007281  0.000000
  -0.007281  -0.000467  0.000000
  0.000000  0.000000  0.000000

  -0.002164  -0.007259  0.000000
  -0.007259  0.001313  0.000000
  0.000000  0.000000  0.000000

  -0.019478  -0.025473  0.000000
  -0.025473  0.010655  0.000000
  0.000000  0.000000  0.000000

  0.003848  -0.007393  0.000000
  -0.007393  -0.004468  0.000000
  0.000000  0.000000  0.000000

  -0.044489  -0.026239  0.000000
  -0.026239  0.025912  0.000000
  0.000000  0.000000  0.000000

  -0.042425  -0.030052  0.000000
  -0.030052  0.022613  0.000000
  0.000000  0.000000  0.000000

  -0.020615  -0.009793  0.000000
  -0.009793  0.013178  0.000000
  0.000000  0.000000  0.000000

  0.015023  -0.000757  0.000000
  -0.000757  -0.008415  0.000000
  0.000000  0.000000  0.000000

  0.002166  -0.011051  0.000000
  -0.011051  -0.001940  0.000000
  0.000000  0.000000  0.000000

  0.005774  -0.008627  0.000000
  -0.008627  -0.005255  0.000000
  0.000000  0.000000  0.000000

  -0.003432  -0.009938  0.000000
  -0.009938  0.002450  0.000000
  0.000000  0.000000  0.000000

  -0.012571  -0.008403  0.000000
  -0.008403  0.009715  0.000000
  0.000000  0.000000  0.000000

  0.006436  -0.006583  0.000000
  -0.006583  -0.006431  0.000000
  0.000000  0.000000  0.000000

  -0.030081  0.003112  0.000000
  0.003112  0.017656  0.000000
  0.000000  0.000000  0.000000

  -0.024687  0.000845  0.000000
  0.000845  0.014348  0.000000
  0.000000  0.000000  0.000000

  -0.008152  -0.005895  0.000000
  -0.005895  0.006064  0.000000
  0.000000  0.000000  0.000000

  -0.004422  -0.009539  0.000000
  -0.009539  0.003661  0.000000
  0.000000  0.000000  0.000000

  0.010931  -0.003739  0.000000
  -0.003739  -0.008294  0.000000
  0.000000  0.000000  0.000000

  -0.066970  -0.021026  0.000000
  -0.021026  0.003543  0.000000
  0.000000  0.000000  0.000000

  -0.048778  -0.020143  0.000000
  -0.020143  -0.003244  0.000000
  0.000000  0.000000  0.000000

  -0.042472  -0.023100  0.000000
  -0.023100  -0.008886  0.000000
  0.000000  0.000000  0.000000

  -0.052916  -0.027464  0.000000
  -0.027464  0.002668  0.000000
  0.000000  0.000000  0.000000

  0.058506  0.006851  0.000000
  0.006851  -0.005259  0.000000
  0.000000  0.000000  0.000000

  0.015168  0.019663  0.000000
  0.019663  0.002781  0.000000
  0.000000  0.000000  0.000000

  0.008276  0.010400  0.000000
  0.010400  0.001389  0.000000
  0.000000  0.000000  0.000000

  -0.067085  -0.019805  0.000000
  -0.019805  0.038584  0.000000
  0.000000  0.000000  0.000000

  -0.006240  -0.029295  0.000000
  -0.029295  0.002366  0.000000
  0.000000  0.000000  0.000000

  0.066771  0.004305  0.000000
  0.004305  -0.017052  0.000000
  0.000000  0.000000  0.000000

  -0.017675  -0.008957  0.000000
  -0.008957  0.012340  0.000000
  0.000000  0.000000  0.000000

  -0.005651  -0.009714  0.000000
  -0.009714  0.003837  0.000000
  0.000000  0.000000  0.000000

  -0.057896  -0.011879  0.000000
  -0.011879  0.002384  0.000000
  0.000000  0.000000  0.000000

  0.012518  -0.001678  0.000000
  -0.001678  -0.007836  0.000000
  0.000000  0.000000  0.000000

  -0.007226  -0.010899  0.000000
  -0.010899  0.005232  0.000000
  0.000000  0.000000  0.000000

  -0.069175  -0.016233  0.000000
  -0.016233  0.033329  0.000000
  0.000000  0.000000  0.000000

  -0.015047  -0.023231  0.000000
  -0.023231  0.007380  0.000000
  0.000000  0.000000  0.000000

  0.056643  -0.012841  0.000000
  -0.012841  -0.015955  0.000000
  0.000000  0.000000  0.000000

  0.042328  -0.021524  0.000000
  -0.021524  0.002031  0.000000
  0.000000  0.000000  0.000000

  0.004173  -0.005775  0.000000
  -0.005775  -0.004709  0.000000
  0.000000  0.000000  0.000000

  -0.010215  -0.026644  0.000000
  -0.026644  0.004720  0.000000
  0.000000  0.000000  0.000000
POINT_DATA 1096
VECTORS displacements double
  0.000000  0.000000  0.000000
  -0.127587  -0.040104  0.000000
  0.000000  0.000000  0.000000
  -0.048310  -0.022889  0.000000
  -0.030006  -0.019706  0.000000
  -0.128008  -0.073060  0.000000
  0.000000  0.000000  0.000000
  -0.216431  -0.080905  0.000000
  -0.075161  -0.060474  0.000000
  -0.129706  -0.106421  0.000000
  -0.019427  -0.019068  0.000000
  -0.200757  -0.122763  0.000000
  -0.046945  -0.052100  0.000000
  -0.289818  -0.127112  0.000000
  0.000000  0.000000  0.000000
  -0.087503  -0.099931  0.000000
  -0.190968  -0.161128  0.000000
  -0.030099  -0.049538  0.000000
  -0.132315  -0.148805  0.000000
  -0.056053  -0.089396  0.000000
  -0.011937  -0.018994  0.000000
  -0.266855  -0.174738  0.000000
  0.000000  0.000000  0.000000
  -0.354596  -0.177495  0.000000
  -0.092181  -0.141912  0.000000
  -0.249931  -0.217774  0.000000
  -0.184694  -0.206479  0.000000
  -0.035080  -0.087538  0.000000
  -0.016566  -0.047542  0.000000
  -0.137207  -0.198561  0.000000
  -0.327575  -0.229113  0.000000
  -0.005751  -0.018988  0.000000
  -0.062255  -0.135682  0.000000
  -0.092181  -0.184824  0.000000
  0.000000  0.000000  0.000000
  -0.413592  -0.231072  0.000000
  -0.236970  -0.265710  0.000000
  -0.306186  -0.276399  0.000000
  -0.035010  -0.127397  0.000000
  -0.177729  -0.254726  0.000000
  -0.016069  -0.084910  0.000000
  -0.004924  -0.046160  0.000000
  -0.128082  -0.242683  0.000000
  -0.000062  -0.018902  0.000000
  -0.383982  -0.285712  0.000000
  -0.058679  -0.182384  0.000000
  -0.223006  -0.309815  0.000000
  -0.091223  -0.238083  0.000000
  -0.468117  -0.287232  0.000000
  0.000000  0.000000  0.000000
  -0.012024  -0.123772  0.000000
  -0.289630  -0.327220  0.000000
  0.000923  -0.083338  0.000000
  -0.360239  -0.336505  0.000000
  -0.029130  -0.175756  0.000000
  -0.169282  -0.305679  0.000000
  0.006078  -0.045533  0.000000
  -0.126706  -0.298242  0.000000
  -0.053390  -0.232323  0.000000
  -0.436729  -0.344180  0.000000
  0.005652  -0.018714  0.000000
  0.009926  -0.122904  0.000000
  -0.276109  -0.381172  0.000000
  -0.217192  -0.366440  0.000000
  -0.001307  -0.173126  0.000000
  -0.341884  -0.388808  0.000000
  0.000000  0.000000  0.000000
  -0.518783  -0.345475  0.000000
  -0.083010  -0.292773  0.000000
  0.017915  -0.083322  0.000000
  -0.413355  -0.396305  0.000000
  -0.017973  -0.228813  0.000000
  -0.163284  -0.361203  0.000000
  0.017573  -0.045565  0.000000
  -0.040915  -0.281373  0.000000
  -0.112389  -0.350387  0.000000
  0.011878  -0.018485  0.000000
  -0.486222  -0.404122  0.000000
  -0.324468  -0.440304  0.000000
  0.026250  -0.174106  0.000000
  0.033028  -0.125512  0.000000
  -0.267288  -0.433884  0.000000
  -0.207771  -0.424293  0.000000
  -0.392602  -0.451340  0.000000
  0.016545  -0.226304  0.000000
  -0.066412  -0.344931  0.000000
  -0.565701  -0.405221  0.000000
  0.000000  0.000000  0.000000
  0.036614  -0.084900  0.000000
  -0.001642  -0.274146  0.000000
  -0.458203  -0.459472  0.000000
  -0.147991  -0.415976  0.000000
  0.030741  -0.046556  0.000000
  -0.022375  -0.335355  0.000000
  0.019360  -0.018374  0.000000
  -0.532435  -0.464807  0.000000
  -0.098450  -0.408401  0.000000
  0.055551  -0.180083  0.000000
  -0.371003  -0.505222  0.000000
  -0.250552  -0.488716  0.000000
  0.051321  -0.226342  0.000000
  0.061005  -0.134071  0.000000
  -0.307688  -0.502196  0.000000
  -0.191351  -0.475064  0.000000
  -0.051856  -0.394079  0.000000
  0.056739  -0.089851  0.000000
  -0.436680  -0.515983  0.000000
  0.039974  -0.283346  0.000000
  -0.608830  -0.465727  0.000000
  0.000000  0.000000  0.000000
  -0.136728  -0.467193  0.000000
  0.047666  -0.051626  0.000000
  -0.505069  -0.522006  0.000000
  0.021563  -0.341831  0.000000
  -0.084327  -0.457253  0.000000
  -0.004493  -0.398195  0.000000
  -0.575199  -0.521954  0.000000
  0.088544  -0.230814  0.000000
  0.030097  -0.018770  0.000000
  -0.420670  -0.563665  0.000000
  0.095033  -0.188992  0.000000
  -0.357932  -0.564227  0.000000
  -0.229242  -0.542874  0.000000
  0.079936  -0.285525  0.000000
  -0.295407  -0.560797  0.000000
  0.094041  -0.140215  0.000000
  -0.173784  -0.533360  0.000000
  -0.485939  -0.574932  0.000000
  0.088787  -0.099212  0.000000
  -0.031824  -0.454680  0.000000
  0.067402  -0.343578  0.000000
  0.000000  0.000000  0.000000
  -0.647994  -0.526219  0.000000
  -0.114861  -0.524628  0.000000
  0.043435  -0.398397  0.000000
  0.075298  -0.058472  0.000000
  -0.551375  -0.582408  0.000000
  0.119472  -0.294170  0.000000
  -0.058028  -0.514466  0.000000
  -0.405363  -0.622353  0.000000
  0.133560  -0.246202  0.000000
  0.136059  -0.198576  0.000000
  -0.272134  -0.608619  0.000000
  -0.468175  -0.621776  0.000000
  -0.343838  -0.623408  0.000000
  0.020493  -0.460394  0.000000
  -0.614792  -0.583161  0.000000
  0.048411  -0.021779  0.000000
  0.107570  -0.348385  0.000000
  -0.209602  -0.600521  0.000000
  0.139550  -0.153539  0.000000
  -0.533733  -0.629943  0.000000
  -0.148324  -0.589465  0.000000
  -0.100452  -0.571733  0.000000
  0.094181  -0.406606  0.000000
  0.136752  -0.110402  0.000000
  -0.011123  -0.520074  0.000000
  0.000000  0.000000  0.000000
  -0.682905  -0.584980  0.000000
  0.069752  -0.464020  0.000000
  -0.587545  -0.638289  0.000000
  0.127941  -0.070536  0.000000
  -0.459511  -0.678997  0.000000
  0.185110  -0.255657  0.000000
  0.159443  -0.355613  0.000000
  0.176444  -0.307667  0.000000
  -0.043560  -0.581135  0.000000
  0.192689  -0.210188  0.000000
  -0.510540  -0.683956  0.000000
  0.045012  -0.524483  0.000000
  -0.239935  -0.673706  0.000000
  0.147098  -0.408745  0.000000
  -0.651453  -0.641096  0.000000
  -0.183509  -0.658407  0.000000
  0.127150  -0.038748  0.000000
  0.198978  -0.164127  0.000000
  -0.416351  -0.709148  0.000000
  -0.327573  -0.704149  0.000000
  -0.563547  -0.692550  0.000000
  0.200955  -0.119308  0.000000
  0.130840  -0.469200  0.000000
  -0.104229  -0.649857  0.000000
  0.013750  -0.586388  0.000000
  0.100822  -0.520251  0.000000
  0.214464  -0.358760  0.000000
  -0.624009  -0.695595  0.000000
  0.216210  -0.078324  0.000000
  -0.488137  -0.738231  0.000000
  0.232142  -0.317976  0.000000
  0.246161  -0.268127  0.000000
  0.203561  -0.415855  0.000000
  0.259007  -0.219415  0.000000
  -0.021395  -0.648893  0.000000
  -0.542029  -0.747139  0.000000
  0.267551  -0.170155  0.000000
  -0.267082  -0.748582  0.000000
  0.186322  -0.472985  0.000000
  0.080566  -0.586190  0.000000
  -0.177144  -0.726702  0.000000
  0.158244  -0.525914  0.000000
  -0.600104  -0.750185  0.000000
  0.290100  -0.123532  0.000000
  -0.403123  -0.789162  0.000000
  -0.337814  -0.786231  0.000000
  -0.110980  -0.731784  0.000000
  -0.464809  -0.793615  0.000000
  0.250856  -0.425665  0.000000
  0.049678  -0.648853  0.000000
  0.133923  -0.586286  0.000000
  0.277559  -0.379645  0.000000
  -0.047881  -0.714844  0.000000
  0.298691  -0.327389  0.000000
  0.236714  -0.480291  0.000000
  -0.522436  -0.802937  0.000000
  0.316223  -0.276254  0.000000
  0.329026  -0.223459  0.000000
  -0.217396  -0.795388  0.000000
  -0.279055  -0.810170  0.000000
  -0.579074  -0.805913  0.000000
  0.220607  -0.537785  0.000000
  -0.143234  -0.785643  0.000000
  0.355626  -0.172808  0.000000
  0.017085  -0.714506  0.000000
  0.112725  -0.651258  0.000000
  0.192407  -0.593869  0.000000
  0.314377  -0.429417  0.000000
  -0.082639  -0.783417  0.000000
  -0.384225  -0.851111  0.000000
  -0.446461  -0.854056  0.000000
  -0.505133  -0.857598  0.000000
  0.300339  -0.486614  0.000000
  -0.319200  -0.859605  0.000000
  0.349998  -0.387644  0.000000
  0.082456  -0.716358  0.000000
  0.370762  -0.334669  0.000000
  0.386454  -0.279078  0.000000
  0.176525  -0.648083  0.000000
  -0.016903  -0.781914  0.000000
  -0.560339  -0.863382  0.000000
  -0.252245  -0.863358  0.000000
  0.284626  -0.541643  0.000000
  -0.184754  -0.853123  0.000000
  0.415667  -0.225333  0.000000
  0.265050  -0.601520  0.000000
  0.148416  -0.712387  0.000000
  -0.116175  -0.854749  0.000000
  0.049863  -0.780700  0.000000
  -0.435649  -0.907582  0.000000
  -0.494560  -0.910833  0.000000
  0.240301  -0.649942  0.000000
  0.366503  -0.489553  0.000000
  -0.372725  -0.919769  0.000000
  -0.047636  -0.847643  0.000000
  -0.545053  -0.917113  0.000000
  0.440504  -0.336755  0.000000
  0.399955  -0.448539  0.000000
  0.422820  -0.394384  0.000000
  0.114947  -0.774597  0.000000
  0.351073  -0.547222  0.000000
  -0.296233  -0.928387  0.000000
  0.471524  -0.280563  0.000000
  -0.226531  -0.921991  0.000000
  0.215935  -0.714144  0.000000
  0.331520  -0.604960  0.000000
  0.020471  -0.852683  0.000000
  -0.155649  -0.922288  0.000000
  -0.487998  -0.960789  0.000000
  -0.086625  -0.916625  0.000000
  0.181503  -0.773529  0.000000
  0.307239  -0.664242  0.000000
  -0.532897  -0.966731  0.000000
  0.089303  -0.846820  0.000000
  0.491516  -0.396092  0.000000
  0.418976  -0.551765  0.000000
  0.284921  -0.714409  0.000000
  0.472575  -0.455018  0.000000
  -0.016391  -0.919063  0.000000
  0.448686  -0.509731  0.000000
  0.523737  -0.338065  0.000000
  -0.430334  -0.999755  0.000000
  -0.337237  -1.000060  0.000000
  -0.263169  -0.995474  0.000000
  0.399033  -0.607122  0.000000
  -0.190163  -0.988888  0.000000
  0.153327  -0.843243  0.000000
  0.249056  -0.773801  0.000000
  -0.489375  -1.014966  0.000000
  -0.523686  -1.012532  0.000000
  0.051431  -0.912614  0.000000
  0.375938  -0.662725  0.000000
  -0.120539  -0.992430  0.000000
  -0.480296  -1.047561  0.000000
  0.353846  -0.724141  0.000000
  0.221111  -0.842561  0.000000
  0.120902  -0.913844  0.000000
  -0.048819  -0.993934  0.000000
  -0.518291  -1.054347  0.000000
  0.539483  -0.456531  0.000000
  -0.380934  -1.063976  0.000000
  0.572352  -0.397358  0.000000
  0.519872  -0.515978  0.000000
  -0.289691  -1.063867  0.000000
  0.468424  -0.613675  0.000000
  0.495971  -0.570592  0.000000
  0.320863  -0.784205  0.000000
  0.022929  -0.988200  0.000000
  -0.226301  -1.065665  0.000000
  0.447395  -0.669102  0.000000
  -0.518784  -1.090835  0.000000
  -0.159964  -1.066244  0.000000
  0.192397  -0.914093  0.000000
  0.292859  -0.841551  0.000000
  0.087265  -0.985950  0.000000
  -0.444974  -1.106631  0.000000
  0.426033  -0.723966  0.000000
  -0.086318  -1.066136  0.000000
  -0.569034  -1.130770  0.000000
  -0.349568  -1.129167  0.000000
  0.584031  -0.517180  0.000000
  0.533664  -0.615422  0.000000
  -0.014497  -1.060825  0.000000
  0.394705  -0.791924  0.000000
  0.159154  -0.978522  0.000000
  0.617022  -0.457753  0.000000
  0.264812  -0.912327  0.000000
  -0.509750  -1.142056  0.000000
  -0.272788  -1.131809  0.000000
  0.564125  -0.576344  0.000000
  0.364650  -0.849951  0.000000
  -0.197470  -1.140036  0.000000
  0.058474  -1.061427  0.000000
  -0.608581  -1.169548  0.000000
  -0.549345  -1.174096  0.000000
  0.541020  -0.672855  0.000000
  -0.122485  -1.144347  0.000000
  0.509344  -0.731775  0.000000
  0.231339  -0.987004  0.000000
  0.337401  -0.912891  0.000000
  0.131442  -1.056047  0.000000
  -0.495160  -1.202225  0.000000
  -0.404674  -1.202897  0.000000
  -0.046926  -1.139169  0.000000
  -0.643291  -1.209195  0.000000
  0.624389  -0.576675  0.000000
  0.657157  -0.518107  0.000000
  -0.319442  -1.209334  0.000000
  -0.583876  -1.218624  0.000000
  0.022411  -1.136946  0.000000
  0.302430  -0.981247  0.000000
  0.492585  -0.804490  0.000000
  0.604095  -0.634970  0.000000
  0.193061  -1.056958  0.000000
  -0.242134  -1.216394  0.000000
  -0.166263  -1.219703  0.000000
  -0.674823  -1.249875  0.000000
  -0.615995  -1.257303  0.000000
  0.572340  -0.739654  0.000000
  0.464075  -0.875371  0.000000
  0.101426  -1.134463  0.000000
  0.267240  -1.049837  0.000000
  -0.543740  -1.277183  0.000000
  0.561875  -0.787579  0.000000
  0.366670  -0.992746  0.000000
  -0.090295  -1.227174  0.000000
  -0.456788  -1.287889  0.000000
  0.165233  -1.132469  0.000000
  -0.372300  -1.284769  0.000000
  0.692347  -0.576569  0.000000
  -0.010277  -1.215299  0.000000
  0.658566  -0.638155  0.000000
  -0.653144  -1.296329  0.000000
  -0.703531  -1.291237  0.000000
  0.431784  -0.961020  0.000000
  0.632286  -0.697348  0.000000
  -0.292597  -1.292389  0.000000
  0.613663  -0.750740  0.000000
  0.065280  -1.210868  0.000000
  -0.213775  -1.293951  0.000000
  0.343321  -1.058416  0.000000
  0.240165  -1.128723  0.000000
  0.604636  -0.796246  0.000000
  -0.674722  -1.329937  0.000000
  0.559846  -0.875005  0.000000
  -0.729925  -1.333102  0.000000
  -0.136507  -1.301924  0.000000
  0.607780  -0.831852  0.000000
  -0.616361  -1.349580  0.000000
  0.138278  -1.210608  0.000000
  -0.507956  -1.355094  0.000000
  0.315628  -1.119474  0.000000
  0.420028  -1.052969  0.000000
  -0.424819  -1.365509  0.000000
  -0.059181  -1.305799  0.000000
  -0.340686  -1.365991  0.000000
  0.213894  -1.203870  0.000000
  0.027261  -1.288260  0.000000
  -0.697489  -1.376412  0.000000
  0.623713  -0.887855  0.000000
  -0.754220  -1.375503  0.000000
  -0.261121  -1.372551  0.000000
  0.676809  -0.850596  0.000000
  -0.181283  -1.375512  0.000000
  0.104395  -1.288893  0.000000
  0.391404  -1.130015  0.000000
  0.498800  -1.047689  0.000000
  0.290067  -1.200081  0.000000
  0.552815  -1.003892  0.000000
  -0.478708  -1.425856  0.000000
  0.676167  -0.902483  0.000000
  -0.726974  -1.419099  0.000000
  -0.567415  -1.433545  0.000000
  -0.103482  -1.382789  0.000000
  -0.776440  -1.418522  0.000000
  0.642337  -0.953143  0.000000
  0.181862  -1.287514  0.000000
  0.732234  -0.872062  0.000000
  -0.009376  -1.365895  0.000000
  0.352508  -1.201499  0.000000
  0.467441  -1.122712  0.000000
  -0.400375  -1.450808  0.000000
  -0.313256  -1.449880  0.000000
  -0.673496  -1.464408  0.000000
  -0.741079  -1.458664  0.000000
  0.260282  -1.279936  0.000000
  0.067811  -1.366863  0.000000
  0.723933  -0.933198  0.000000
  -0.231687  -1.456206  0.000000
  -0.796772  -1.462034  0.000000
  0.431457  -1.192855  0.000000
  0.783039  -0.896527  0.000000
  0.145134  -1.362446  0.000000
  0.558514  -1.108639  0.000000
  -0.151197  -1.459176  0.000000
  0.326648  -1.278867  0.000000
  0.637175  -1.051797  0.000000
  -0.752392  -1.503393  0.000000
  0.220977  -1.354543  0.000000
  -0.495506  -1.523948  0.000000
  -0.071535  -1.466182  0.000000
  -0.815206  -1.506045  0.000000
  0.776545  -0.956448  0.000000
  0.032760  -1.442190  0.000000
  -0.367374  -1.527673  0.000000
  0.738297  -1.012889  0.000000
  0.405947  -1.274270  0.000000
  0.830778  -0.923672  0.000000
  0.514256  -1.202511  0.000000
  -0.283535  -1.533617  0.000000
  -0.777034  -1.543087  0.000000
  0.300273  -1.358065  0.000000
  0.111803  -1.444031  0.000000
  -0.198101  -1.538318  0.000000
  0.648337  -1.137047  0.000000
  -0.831726  -1.550525  0.000000
  0.821252  -0.982618  0.000000
  0.486912  -1.265231  0.000000
  0.192699  -1.437438  0.000000
  0.597953  -1.195133  0.000000
  -0.723243  -1.579036  0.000000
  -0.116680  -1.541297  0.000000
  -0.582160  -1.589465  0.000000
  0.875975  -0.952463  0.000000
  -0.428996  -1.592069  0.000000
  0.379927  -1.351846  0.000000
  -0.796760  -1.579520  0.000000
  -0.007091  -1.522439  0.000000
  0.733732  -1.107717  0.000000
  0.262661  -1.435368  0.000000
  -0.846404  -1.595483  0.000000
  0.073329  -1.521519  0.000000
  0.873438  -1.004451  0.000000
  0.568983  -1.274144  0.000000
  0.460968  -1.347080  0.000000
  -0.510444  -1.636499  0.000000
  0.151562  -1.514160  0.000000
  0.919032  -0.983156  0.000000
  -0.805704  -1.629220  0.000000
  0.846453  -1.068824  0.000000
  -0.665559  -1.648223  0.000000
  0.351026  -1.433756  0.000000
  -0.309785  -1.641199  0.000000
  -0.163383  -1.620328  0.000000
  0.714105  -1.200647  0.000000
  0.904597  -1.033160  0.000000
  -0.859197  -1.640711  0.000000
  0.529226  -1.347553  0.000000
  0.232324  -1.517862  0.000000
  -0.593351  -1.677163  0.000000
  0.656223  -1.270239  0.000000
  -0.037285  -1.620698  0.000000
  -0.752854  -1.675016  0.000000
  0.431454  -1.428161  0.000000
  -0.229138  -1.662398  0.000000
  -0.441089  -1.686996  0.000000
  -0.822957  -1.669591  0.000000
  0.038508  -1.604885  0.000000
  0.960135  -1.015256  0.000000
  0.312679  -1.508530  0.000000
  0.821659  -1.171563  0.000000
  0.119638  -1.597630  0.000000
  -0.870165  -1.686268  0.000000
  -0.373605  -1.709114  0.000000
  0.943631  -1.071310  0.000000
  0.502566  -1.425966  0.000000
  0.615979  -1.355378  0.000000
  -0.676171  -1.719681  0.000000
  -0.523297  -1.728359  0.000000
  0.730057  -1.280773  0.000000
  0.392700  -1.504194  0.000000
  -0.827125  -1.716571  0.000000
  0.198445  -1.598627  0.000000
  0.999327  -1.048826  0.000000
  -0.291351  -1.730148  0.000000
  0.024955  -1.671534  0.000000
  0.586691  -1.420256  0.000000
  -0.879281  -1.732039  0.000000
  0.816521  -1.249952  0.000000
  0.278779  -1.589834  0.000000
  0.932752  -1.148881  0.000000
  0.702435  -1.346867  0.000000
  0.980550  -1.103811  0.000000
  -0.606420  -1.768023  0.000000
  -0.770894  -1.757927  0.000000
  0.476004  -1.505986  0.000000
  -0.108310  -1.732171  0.000000
  -0.210064  -1.751726  0.000000
  0.085227  -1.681281  0.000000
  -0.453621  -1.779132  0.000000
  -0.841027  -1.757893  0.000000
  0.361290  -1.585731  0.000000
  1.036743  -1.083789  0.000000
  -0.690805  -1.796407  0.000000
  -0.354589  -1.797832  0.000000
  0.789189  -1.333495  0.000000
  -0.886583  -1.778032  0.000000
  0.167403  -1.686688  0.000000
  0.559690  -1.498510  0.000000
  0.671183  -1.426807  0.000000
  1.015795  -1.137748  0.000000
  -0.021116  -1.749483  0.000000
  0.913777  -1.247705  0.000000
  0.438799  -1.584322  0.000000
  -0.542163  -1.826958  0.000000
  -0.841424  -1.804795  0.000000
  0.248608  -1.673791  0.000000
  -0.272119  -1.819156  0.000000
  0.061702  -1.754669  0.000000
  1.072399  -1.120154  0.000000
  0.757279  -1.412797  0.000000
  0.644743  -1.492221  0.000000
  -0.892040  -1.824128  0.000000
  -0.782083  -1.841323  0.000000
  0.880569  -1.325115  0.000000
  0.327444  -1.673977  0.000000
  -0.151623  -1.824412  0.000000
  0.530406  -1.580959  0.000000
  1.056471  -1.172891  0.000000
  -0.418397  -1.865269  0.000000
  -0.851951  -1.846811  0.000000
  1.018721  -1.223608  0.000000
  -0.629452  -1.875529  0.000000
  -0.699233  -1.873580  0.000000
  -0.067465  -1.827879  0.000000
  0.139622  -1.773371  0.000000
  0.408124  -1.666256  0.000000
  1.106268  -1.157840  0.000000
  0.221525  -1.757955  0.000000
  -0.334991  -1.886416  0.000000
  0.729577  -1.494970  0.000000
  -0.895679  -1.870318  0.000000
  0.614147  -1.573904  0.000000
  0.016301  -1.831749  0.000000
  1.083848  -1.202729  0.000000
  0.855112  -1.415552  0.000000
  0.490861  -1.655614  0.000000
  0.972072  -1.320563  0.000000
  -0.848659  -1.893423  0.000000
  -0.252491  -1.908003  0.000000
  0.099252  -1.833069  0.000000
  0.304353  -1.760686  0.000000
  -0.544524  -1.931068  0.000000
  -0.785997  -1.923707  0.000000
  0.691134  -1.572114  0.000000
  1.138408  -1.196814  0.000000
  0.385107  -1.740507  0.000000
  0.817766  -1.484218  0.000000
  -0.897492  -1.916495  0.000000
  -0.186973  -1.918422  0.000000
  0.573758  -1.650287  0.000000
  -0.112637  -1.909693  0.000000
  1.111184  -1.247286  0.000000
  -0.701534  -1.950808  0.000000
  0.182522  -1.838608  0.000000
  -0.855687  -1.935648  0.000000
  1.065824  -1.304935  0.000000
  -0.027958  -1.911403  0.000000
  -0.400323  -1.967045  0.000000
  -0.468239  -1.972782  0.000000
  0.462890  -1.739836  0.000000
  0.963234  -1.419682  0.000000
  -0.621992  -1.981109  0.000000
  0.266413  -1.836309  0.000000
  -0.314165  -1.974502  0.000000
  1.168730  -1.236952  0.000000
  0.779859  -1.573347  0.000000
  -0.897494  -1.962626  0.000000
  0.660270  -1.651783  0.000000
  0.056501  -1.912733  0.000000
  0.344454  -1.818983  0.000000
  1.038486  -1.380833  0.000000
  0.542010  -1.732046  0.000000
  1.139490  -1.286092  0.000000
  -0.848881  -1.981940  0.000000
  0.139123  -1.914318  0.000000
  -0.235653  -1.996736  0.000000
  -0.545060  -2.022648  0.000000
  -0.785571  -2.010781  0.000000
  0.923296  -1.517132  0.000000
  0.747232  -1.645765  0.000000
  -0.697746  -2.027545  0.000000
  0.428899  -1.821646  0.000000
  -0.150030  -2.000496  0.000000
  0.855746  -1.572172  0.000000
  -0.895685  -2.008613  0.000000
  0.221086  -1.909049  0.000000
  -0.073227  -1.990672  0.000000
  0.627877  -1.725521  0.000000
  1.197232  -1.278180  0.000000
  -0.453391  -2.043284  0.000000
  1.115287  -1.370685  0.000000
  -0.852864  -2.025129  0.000000
  1.173327  -1.324436  0.000000
  -0.366312  -2.049705  0.000000
  0.304838  -1.898815  0.000000
  0.011732  -1.991747  0.000000
  0.513747  -1.815062  0.000000
  -0.280519  -2.052921  0.000000
  -0.622439  -2.071733  0.000000
  1.066533  -1.458263  0.000000
  0.096667  -1.993761  0.000000
  0.834378  -1.646175  0.000000
  -0.892091  -2.054422  0.000000
  0.714104  -1.727434  0.000000
  1.223847  -1.320406  0.000000
  0.389859  -1.898165  0.000000
  -0.842167  -2.069855  0.000000
  0.598745  -1.804520  0.000000
  1.190959  -1.366562  0.000000
  1.014535  -1.528087  0.000000
  -0.198325  -2.078433  0.000000
  0.189079  -1.989958  0.000000
  -0.776501  -2.095181  0.000000
  0.471836  -1.888329  0.000000
  -0.113361  -2.082738  0.000000
  -0.692246  -2.117872  0.000000
  0.273762  -1.982516  0.000000
  0.795329  -1.724678  0.000000
  -0.032811  -2.071380  0.000000
  -0.886711  -2.099960  0.000000
  0.923813  -1.639628  0.000000
  0.674238  -1.805517  0.000000
  1.160048  -1.446491  0.000000
  -0.842704  -2.113375  0.000000
  1.248523  -1.363462  0.000000
  0.553527  -1.879057  0.000000
  1.221144  -1.406825  0.000000
  0.988741  -1.614708  0.000000
  0.075944  -2.069401  0.000000
  -0.521941  -2.148412  0.000000
  0.357323  -1.981922  0.000000
  1.104083  -1.530999  0.000000
  -0.615090  -2.155041  0.000000
  -0.262830  -2.142352  0.000000
  0.153828  -2.068546  0.000000
  -0.879564  -2.145192  0.000000
  -0.434038  -2.169232  0.000000
  0.884515  -1.724166  0.000000
  0.761909  -1.804913  0.000000
  -0.828631  -2.156664  0.000000
  0.442243  -1.972461  0.000000
  1.271270  -1.407292  0.000000
  0.639935  -1.884249  0.000000
  1.235042  -1.450171  0.000000
  -0.051719  -2.138159  0.000000
  0.239008  -2.065617  0.000000
  -0.348031  -2.183521  0.000000
  -0.759265  -2.183349  0.000000
  -0.180453  -2.168082  0.000000
  0.524208  -1.962780  0.000000
  0.323668  -2.056319  0.000000
  -0.870667  -2.190031  0.000000
  0.032724  -2.148386  0.000000
  1.197821  -1.526465  0.000000
  0.849825  -1.799266  0.000000
  -0.819348  -2.199480  0.000000
  -0.662183  -2.214825  0.000000
  0.726727  -1.880974  0.000000
  -0.577032  -2.222322  0.000000
  1.074915  -1.647932  0.000000
  1.292080  -1.451794  0.000000
  0.609719  -1.951760  0.000000
  1.006116  -1.704379  0.000000
  -0.098013  -2.193825  0.000000
  1.261491  -1.492354  0.000000
  0.114821  -2.150643  0.000000
  1.152953  -1.599415  0.000000
  0.409048  -2.055839  0.000000
  -0.491251  -2.240967  0.000000
  -0.244447  -2.231590  0.000000
  0.200578  -2.146035  0.000000
  -0.860047  -2.234426  0.000000
  -0.803287  -2.242749  0.000000
  -0.406050  -2.254603  0.000000
  0.937874  -1.798212  0.000000
  0.494522  -2.046743  0.000000
  0.814830  -1.880888  0.000000
  0.693869  -1.954694  0.000000
  1.310949  -1.496909  0.000000
  1.271691  -1.536333  0.000000
  0.284775  -2.137475  0.000000
  -0.015776  -2.220482  0.000000
  -0.732705  -2.272776  0.000000
  -0.320831  -2.273153  0.000000
  -0.161668  -2.257494  0.000000
  0.580080  -2.035427  0.000000
  -0.637889  -2.286759  0.000000
  1.228539  -1.608822  0.000000
  0.370709  -2.134010  0.000000
  -0.847713  -2.278309  0.000000
  0.053664  -2.233801  0.000000
  -0.800808  -2.287925  0.000000
  1.091999  -1.736987  0.000000
  1.159785  -1.682564  0.000000
  0.898593  -1.877617  0.000000
  -0.553199  -2.308514  0.000000
  0.779968  -1.954103  0.000000
  1.327876  -1.542550  0.000000
  0.453530  -2.122225  0.000000
  0.652919  -2.032497  0.000000
  1.294353  -1.580171  0.000000
  -0.466543  -2.321478  0.000000
  -0.079868  -2.283358  0.000000
  0.142673  -2.241210  0.000000
  1.047993  -1.808248  0.000000
  -0.781623  -2.325017  0.000000
  0.536164  -2.111770  0.000000
  -0.226078  -2.320917  0.000000
  -0.833687  -2.321621  0.000000
  0.866849  -1.955100  0.000000
  1.300886  -1.624452  0.000000
  -0.004058  -2.302787  0.000000
  1.342851  -1.588639  0.000000
  0.741120  -2.033583  0.000000
  0.338528  -2.218518  0.000000
  0.240438  -2.250783  0.000000
  -0.386516  -2.362275  0.000000
  -0.608390  -2.371225  0.000000
  1.252231  -1.692692  0.000000
  -0.708214  -2.368605  0.000000
  -0.143640  -2.346967  0.000000
  1.177924  -1.760291  0.000000
  0.622633  -2.113296  0.000000
  -0.818002  -2.364297  0.000000
  -0.770021  -2.371162  0.000000
  1.017044  -1.892376  0.000000
  0.424114  -2.207071  0.000000
  -0.524602  -2.391862  0.000000
  0.080187  -2.321296  0.000000
  0.954175  -1.952308  0.000000
  1.355885  -1.635088  0.000000
  0.826129  -2.033692  0.000000
  1.319707  -1.669591  0.000000
  0.506264  -2.195970  0.000000
  0.708768  -2.104562  0.000000
  -0.754635  -2.404079  0.000000
  -0.061048  -2.372803  0.000000
  -0.800685  -2.406270  0.000000
  1.122948  -1.862020  0.000000
  -0.205750  -2.409105  0.000000
  0.580957  -2.191953  0.000000
  -0.292493  -2.423548  0.000000
  0.305222  -2.302394  0.000000
  1.322646  -1.713873  0.000000
  0.163037  -2.346551  0.000000
  1.366989  -1.681823  0.000000
  0.024302  -2.388957  0.000000
  0.794342  -2.105482  0.000000
  1.268905  -1.777559  0.000000
  0.390777  -2.290866  0.000000
  -0.729624  -2.444813  0.000000
  -0.372596  -2.448248  0.000000
  1.208765  -1.836080  0.000000
  -0.460588  -2.452566  0.000000
  -0.781746  -2.447519  0.000000
  0.947139  -2.037815  0.000000
  0.676028  -2.187870  0.000000
  -0.122932  -2.435282  0.000000
  0.476806  -2.280425  0.000000
  -0.651042  -2.472942  0.000000
  0.247862  -2.363647  0.000000
  1.337611  -1.760032  0.000000
  -0.545499  -2.480281  0.000000
  1.376171  -1.728771  0.000000
  0.099633  -2.408561  0.000000
  1.041553  -1.998494  0.000000
  0.880432  -2.105020  0.000000
  1.116976  -1.951895  0.000000
  0.562671  -2.267546  0.000000
  -0.711516  -2.489284  0.000000
  -0.039483  -2.451891  0.000000
  -0.761226  -2.487931  0.000000
  0.754337  -2.189059  0.000000
  1.195649  -1.917509  0.000000
  0.645482  -2.251649  0.000000
  1.337017  -1.804100  0.000000
  -0.341452  -2.507753  0.000000
  1.278822  -1.862944  0.000000
  -0.185834  -2.497560  0.000000
  0.358784  -2.375593  0.000000
  1.383455  -1.775887  0.000000
  -0.687427  -2.520701  0.000000
  0.190359  -2.431379  0.000000
  -0.415871  -2.528833  0.000000
  -0.739178  -2.527461  0.000000
  0.840937  -2.184364  0.000000
  0.043055  -2.478426  0.000000
  0.444110  -2.364641  0.000000
  1.041408  -2.073312  0.000000
  -0.487794  -2.547262  0.000000
  -0.102187  -2.516342  0.000000
  1.348150  -1.851039  0.000000
  -0.657929  -2.553778  0.000000
  1.388829  -1.823099  0.000000
  0.534277  -2.353199  0.000000
  -0.273697  -2.548155  0.000000
  1.121901  -2.042243  0.000000
  1.195044  -1.992855  0.000000
  0.705888  -2.288658  0.000000
  0.128079  -2.495231  0.000000
  -0.715616  -2.566073  0.000000
  -0.588005  -2.573766  0.000000
  0.620059  -2.337646  0.000000
  0.917360  -2.188332  0.000000
  0.994118  -2.144305  0.000000
  1.344050  -1.894773  0.000000
  1.282977  -1.946349  0.000000
  0.301895  -2.461316  0.000000
  -0.018082  -2.539898  0.000000
  -0.352668  -2.589946  0.000000
  1.392324  -1.870410  0.000000
  -0.641024  -2.599221  0.000000
  0.797944  -2.280927  0.000000
  0.411953  -2.449006  0.000000
  -0.690582  -2.603696  0.000000
  0.211373  -2.520465  0.000000
  -0.178114  -2.597928  0.000000
  -0.434101  -2.617848  0.000000
  1.351677  -1.941646  0.000000
  0.498511  -2.437616  0.000000
  0.073804  -2.563454  0.000000
  0.888729  -2.263006  0.000000
  1.092655  -2.141515  0.000000
  -0.620079  -2.628735  0.000000
  1.207401  -2.065154  0.000000
  1.393889  -1.917924  0.000000
  -0.664123  -2.640270  0.000000
  -0.075212  -2.609696  0.000000
  0.592153  -2.423551  0.000000
  -0.514590  -2.646905  0.000000
  1.278391  -2.031599  0.000000
  -0.280371  -2.639301  0.000000
  1.344386  -1.984399  0.000000
  0.982724  -2.244861  0.000000
  0.147417  -2.581743  0.000000
  -0.586119  -2.661046  0.000000
  0.679672  -2.406703  0.000000
  1.393536  -1.964682  0.000000
  0.379339  -2.533534  0.000000
  0.010054  -2.626309  0.000000
  1.174285  -2.144585  0.000000
  0.313799  -2.555915  0.000000
  -0.636263  -2.675763  0.000000
  0.765752  -2.389172  0.000000
  -0.356239  -2.680486  0.000000
  1.069339  -2.226079  0.000000
  1.347677  -2.031347  0.000000
  0.466091  -2.522030  0.000000
  -0.127501  -2.665702  0.000000
  0.863002  -2.351690  0.000000
  -0.562398  -2.697205  0.000000
  1.391349  -2.010980  0.000000
  1.267653  -2.114313  0.000000
  0.956273  -2.315927  0.000000
  -0.607060  -2.710110  0.000000
  0.552968  -2.510642  0.000000
  0.244277  -2.610920  0.000000
  1.337060  -2.072666  0.000000
  0.093081  -2.652626  0.000000
  -0.527661  -2.724688  0.000000
  -0.202228  -2.708769  0.000000
  1.155190  -2.218346  0.000000
  -0.450122  -2.725769  0.000000
  1.387379  -2.056964  0.000000
  -0.044354  -2.694241  0.000000
  -0.296850  -2.725982  0.000000
  -0.576550  -2.743263  0.000000
  1.045082  -2.312003  0.000000
  0.176455  -2.667404  0.000000
  1.336683  -2.119437  0.000000
  1.250433  -2.195672  0.000000
  -0.496954  -2.761157  0.000000
  0.917143  -2.400354  0.000000
  0.027585  -2.712535  0.000000
  1.381658  -2.102622  0.000000
  0.699681  -2.511849  0.000000
  0.324950  -2.646811  0.000000
  1.130461  -2.290132  0.000000
  1.322929  -2.159599  0.000000
  -0.544784  -2.775162  0.000000
  -0.369523  -2.778240  0.000000
  -0.110237  -2.755161  0.000000
  0.852444  -2.460667  0.000000
  -0.470751  -2.785927  0.000000
  0.472843  -2.620933  0.000000
  0.561985  -2.594540  0.000000
  0.114180  -2.727168  0.000000
  1.374190  -2.147915  0.000000
  1.007056  -2.392203  0.000000
  -0.239885  -2.786175  0.000000
  -0.511822  -2.805770  0.000000
  1.318910  -2.206020  0.000000
  0.402212  -2.668197  0.000000
  0.642610  -2.582893  0.000000
  -0.431234  -2.810894  0.000000
  1.225927  -2.275916  0.000000
  0.786668  -2.530214  0.000000
  0.253139  -2.721859  0.000000
  -0.168512  -2.802074  0.000000
  -0.027677  -2.783738  0.000000
  1.364992  -2.192791  0.000000
  0.181749  -2.745502  0.000000
  1.302157  -2.244814  0.000000
  -0.302050  -2.825771  0.000000
  1.095108  -2.385106  0.000000
  -0.477693  -2.835045  0.000000
  -0.402230  -2.840649  0.000000
  0.950255  -2.480001  0.000000
  0.058364  -2.797875  0.000000
  1.354088  -2.237185  0.000000
  0.729895  -2.598317  0.000000
  0.339029  -2.738013  0.000000
  1.294338  -2.290812  0.000000
  -0.442464  -2.862942  0.000000
  -0.361711  -2.861720  0.000000
  0.568021  -2.674513  0.000000
  1.045175  -2.458426  0.000000
  -0.090750  -2.843269  0.000000
  0.873159  -2.549651  0.000000
  1.200855  -2.372297  0.000000
  -0.229760  -2.868281  0.000000
  1.341488  -2.281061  0.000000
  1.274913  -2.327889  0.000000
  0.452142  -2.730996  0.000000
  -0.406193  -2.889416  0.000000
  0.142437  -2.821729  0.000000
  -0.330382  -2.889353  0.000000
  1.327226  -2.324343  0.000000
  0.815960  -2.616688  0.000000
  0.005792  -2.867161  0.000000
  0.209432  -2.827166  0.000000
  0.671922  -2.682912  0.000000
  1.263093  -2.373959  0.000000
  -0.288486  -2.906872  0.000000
  -0.368930  -2.914429  0.000000
  0.296073  -2.817198  0.000000
  1.015426  -2.533266  0.000000
  -0.152532  -2.907149  0.000000
  1.247535  -2.406833  0.000000
  1.147764  -2.470755  0.000000
  1.311312  -2.366984  0.000000
  0.954750  -2.578469  0.000000
  0.078462  -2.883344  0.000000
  -0.254736  -2.932323  0.000000
  -0.330735  -2.937948  0.000000
  0.383332  -2.817134  0.000000
  1.222309  -2.447494  0.000000
  0.544541  -2.775647  0.000000
  0.626989  -2.748506  0.000000
  1.293781  -2.408905  0.000000
  0.902875  -2.632659  0.000000
  -0.211995  -2.946099  0.000000
  0.469332  -2.811930  0.000000
  -0.291657  -2.959943  0.000000
  1.087507  -2.547677  0.000000
  0.772126  -2.706751  0.000000
  0.164275  -2.901708  0.000000
  -0.061272  -2.947776  0.000000
  -0.172682  -2.963413  0.000000
  1.274645  -2.450085  0.000000
  1.208358  -2.492202  0.000000
  -0.251764  -2.980377  0.000000
  0.263619  -2.898308  0.000000
  1.039466  -2.601746  0.000000
  0.857344  -2.692872  0.000000
  1.186047  -2.522437  0.000000
  -0.132712  -2.979162  0.000000
  1.253946  -2.490428  0.000000
  0.337902  -2.894011  0.000000
  0.035274  -2.962519  0.000000
  -0.211102  -2.999216  0.000000
  1.156331  -2.559743  0.000000
  0.692075  -2.786435  0.000000
  0.520160  -2.857812  0.000000
  0.995768  -2.659583  0.000000
  0.425398  -2.888243  0.000000
  -0.089838  -2.999300  0.000000
  1.231729  -2.529887  0.000000
  0.604897  -2.834962  0.000000
  -0.169757  -3.016444  0.000000
  1.137651  -2.597135  0.000000
  0.117969  -2.977069  0.000000
  -0.055840  -3.010742  0.000000
  1.208002  -2.568420  0.000000
  1.105358  -2.629791  0.000000
  -0.127770  -3.032016  0.000000
  -0.009639  -3.016781  0.000000
  0.937760  -2.728410  0.000000
  0.206501  -2.983228  0.000000
  1.077890  -2.663229  0.000000
  1.182819  -2.605967  0.000000
  -0.085225  -3.045926  0.000000
  0.858076  -2.779784  0.000000
  0.029320  -3.031823  0.000000
  0.294015  -2.983187  0.000000
  1.156219  -2.642465  0.000000
  0.074469  -3.033668  0.000000
  1.052010  -2.701369  0.000000
  0.780577  -2.831594  0.000000
  -0.042173  -3.058142  0.000000
  1.019201  -2.726683  0.000000
  1.128228  -2.677877  0.000000
  0.115035  -3.045799  0.000000
  0.001320  -3.068658  0.000000
  0.392410  -2.985355  0.000000
  0.159621  -3.043880  0.000000
  0.598838  -2.923849  0.000000
  0.693004  -2.890305  0.000000
  0.991758  -2.765211  0.000000
  0.502099  -2.961720  0.000000
  1.098898  -2.712136  0.000000
  0.202421  -3.046471  0.000000
  0.962057  -2.786433  0.000000
  0.045183  -3.077451  0.000000
  0.246978  -3.041652  0.000000
  0.922502  -2.812591  0.000000
  1.068279  -2.745194  0.000000
  0.089354  -3.084514  0.000000
  0.894268  -2.840269  0.000000
  1.036406  -2.777007  0.000000
  0.290426  -3.051549  0.000000
  0.852809  -2.863226  0.000000
  0.330987  -3.044089  0.000000
  0.133757  -3.089829  0.000000
  0.816568  -2.886437  0.000000
  1.003349  -2.807522  0.000000
  0.779437  -2.908194  0.000000
  0.377589  -3.045483  0.000000
  0.178333  -3.093390  0.000000
  0.412939  -3.039604  0.000000
  0.458382  -3.026565  0.000000
  0.740132  -2.934727  0.000000
  0.969137  -2.836700  0.000000
  0.663482  -2.964425  0.000000
  0.582896  -2.994134  0.000000
  0.223011  -3.095201  0.000000
  0.505344  -3.021283  0.000000
  0.708300  -2.954241  0.000000
  0.540275  -3.013226  0.000000
  0.624917  -2.986526  0.000000
  0.933829  -2.864509  0.000000
  0.267731  -3.095247  0.000000
  0.897478  -2.890890  0.000000
  0.312418  -3.093539  0.000000
  0.860133  -2.915817  0.000000
  0.357005  -3.090068  0.000000
  0.821870  -2.939250  0.000000
  0.401417  -3.084854  0.000000
  0.782730  -2.961144  0.000000
  0.445600  -3.077886  0.000000
  0.742789  -2.981481  0.000000
  0.489483  -3.069189  0.000000
  0.702086  -3.000227  0.000000
  0.532997  -3.058772  0.000000
  0.660687  -3.017357  0.000000
  0.576077  -3.046646  0.000000
  0.618663  -3.032835  0.000000

CELL_DATA 2014
TENSORS stress double
  -1690692.275531  292843.737844  0.000000
  292843.737844  -220599.295369  0.000000
  0.000000  0.000000  0.000000


  -53471.230256  -32505.423540  0.000000
  -32505.423540  42038.028047  0.000000
  0.000000  0.000000  0.000000


  9648.430176  -48038.118812  0.000000
  -48038.118812  -18469.083170  0.000000
  0.000000  0.000000  0.000000


  33461.202740  -4345.541268  0.000000
  -4345.541268  -50670.240864  0.000000
  0.000000  0.000000  0.000000


  -87419.631632  7003.584990  0.000000
  7003.584990  51304.501022  0.000000
  0.000000  0.000000  0.000000


  -21914.499169  -49846.233890  0.000000
  -49846.233890  12942.363756  0.000000
  0.000000  0.000000  0.000000


  30775.812681  -30192.819336  0.000000
  -30192.819336  -42407.986754  0.000000
  0.000000  0.000000  0.000000


  -123661.916977  49448.131040  0.000000
  49448.131040  45600.568704  0.000000
  0.000000  0.000000  0.000000


  -37956.271754  -44050.134318  0.000000
  -44050.134318  28708.564967  0.000000
  0.000000  0.000000  0.000000


  22583.096794  -40218.628925  0.000000
  -40218.628925  -31780.283890  0.000000
  0.000000  0.000000  0.000000


  -68251.802912  -15916.878351  0.000000
  -15916.878351  49283.714561  0.000000
  0.000000  0.000000  0.000000


  -5542.301317  -51355.895514  0.000000
  -51355.895514  -2650.855965  0.000000
  0.000000  0.000000  0.000000


  35033.857721  -17096.984721  0.000000
  -17096.984721  -48599.474205  0.000000
  0.000000  0.000000  0.000000


  -197278.357903  90768.698451  0.000000
  90768.698451  10075.407826  0.000000
  0.000000  0.000000  0.000000


  -46097.997670  -38689.171083  0.000000
  -38689.171083  34915.693551  0.000000
  0.000000  0.000000  0.000000


  15885.690578  -44721.091772  0.000000
  -44721.091772  -25402.125056  0.000000
  0.000000  0.000000  0.000000


  -76826.934092  -5521.800969  0.000000
  -5521.800969  51253.431280  0.000000
  0.000000  0.000000  0.000000


  -14153.072812  -50962.691520  0.000000
  -50962.691520  5318.505046  0.000000
  0.000000  0.000000  0.000000


  34286.237168  -23517.252938  0.000000
  -23517.252938  -45841.936426  0.000000
  0.000000  0.000000  0.000000


  -99683.780951  23315.075638  0.000000
  23315.075638  47560.291096  0.000000
  0.000000  0.000000  0.000000


  -30283.091885  -47328.656335  0.000000
  -47328.656335  20853.523177  0.000000
  0.000000  0.000000  0.000000


  27326.050312  -35681.290090  0.000000
  -35681.290090  -37292.248971  0.000000
  0.000000  0.000000  0.000000


  -61505.867216  -24697.754619  0.000000
  -24697.754619  45766.583372  0.000000
  0.000000  0.000000  0.000000


  2749.180908  -50242.188129  0.000000
  -50242.188129  -10815.692866  0.000000
  0.000000  0.000000  0.000000


  35235.917254  -10324.436320  0.000000
  -10324.436320  -49841.704199  0.000000
  0.000000  0.000000  0.000000


  -384134.941764  169735.882728  0.000000
  169735.882728  -31612.754764  0.000000
  0.000000  0.000000  0.000000


  -50434.681792  -35408.066275  0.000000
  -35408.066275  37868.716653  0.000000
  0.000000  0.000000  0.000000


  12255.402966  -46747.779266  0.000000
  -46747.779266  -21978.584133  0.000000
  0.000000  0.000000  0.000000


  33730.056908  -3255.072351  0.000000
  -3255.072351  -48766.891603  0.000000
  0.000000  0.000000  0.000000


  -81781.359062  264.896089  0.000000
  264.896089  51500.939504  0.000000
  0.000000  0.000000  0.000000


  -18015.163119  -50519.262802  0.000000
  -50519.262802  9295.411216  0.000000
  0.000000  0.000000  0.000000


  32761.755592  -26964.333152  0.000000
  -26964.333152  -43978.097847  0.000000
  0.000000  0.000000  0.000000


  -108896.906693  34973.114725  0.000000
  34973.114725  44443.852286  0.000000
  0.000000  0.000000  0.000000


  -34321.127689  -45630.404251  0.000000
  -45630.404251  24686.321573  0.000000
  0.000000  0.000000  0.000000


  24924.880311  -37964.988125  0.000000
  -37964.988125  -34569.285194  0.000000
  0.000000  0.000000  0.000000


  -65056.764442  -20402.435108  0.000000
  -20402.435108  47618.674261  0.000000
  0.000000  0.000000  0.000000


  -1432.986963  -51028.118215  0.000000
  -51028.118215  -6981.879987  0.000000
  0.000000  0.000000  0.000000


  35455.599146  -13582.689977  0.000000
  -13582.689977  -49064.743438  0.000000
  0.000000  0.000000  0.000000


  -146390.889505  69083.066737  0.000000
  69083.066737  32861.940648  0.000000
  0.000000  0.000000  0.000000


  -41735.869667  -41723.621857  0.000000
  -41723.621857  32053.573677  0.000000
  0.000000  0.000000  0.000000


  19569.849520  -42501.044861  0.000000
  -42501.044861  -28412.507885  0.000000
  0.000000  0.000000  0.000000


  -72555.283648  -10825.163520  0.000000
  -10825.163520  50416.757869  0.000000
  0.000000  0.000000  0.000000


  -9604.953211  -51408.274995  0.000000
  -51408.274995  1294.875552  0.000000
  0.000000  0.000000  0.000000


  34648.505821  -20329.103741  0.000000
  -20329.103741  -48202.368058  0.000000
  0.000000  0.000000  0.000000


  -93319.342219  14717.024228  0.000000
  14717.024228  50184.151612  0.000000
  0.000000  0.000000  0.000000


  -26155.214921  -48943.404768  0.000000
  -48943.404768  16864.756142  0.000000
  0.000000  0.000000  0.000000


  29023.303173  -32929.048196  0.000000
  -32929.048196  -40369.703569  0.000000
  0.000000  0.000000  0.000000


  -57232.479260  -29262.548679  0.000000
  -29262.548679  43864.432038  0.000000
  0.000000  0.000000  0.000000


  6738.620621  -49187.941596  0.000000
  -49187.941596  -14772.129837  0.000000
  0.000000  0.000000  0.000000


  34303.114477  -7138.327810  0.000000
  -7138.327810  -50182.046292  0.000000
  0.000000  0.000000  0.000000


  -696176.548034  227497.599327  0.000000
  227497.599327  -103374.461419  0.000000
  0.000000  0.000000  0.000000


  -51494.347592  -34345.176189  0.000000
  -34345.176189  39518.082944  0.000000
  0.000000  0.000000  0.000000


  11839.890882  -46996.478171  0.000000
  -46996.478171  -20337.284102  0.000000
  0.000000  0.000000  0.000000


  31912.114963  -3362.890408  0.000000
  -3362.890408  -52059.053812  0.000000
  0.000000  0.000000  0.000000


  -84090.468743  3542.572663  0.000000
  3542.572663  55082.362223  0.000000
  0.000000  0.000000  0.000000


  -19292.880751  -50546.778951  0.000000
  -50546.778951  10999.666264  0.000000
  0.000000  0.000000  0.000000


  32220.633264  -28275.351643  0.000000
  -28275.351643  -43076.927432  0.000000
  0.000000  0.000000  0.000000


  -119330.514764  40992.716752  0.000000
  40992.716752  44035.958618  0.000000
  0.000000  0.000000  0.000000


  -36117.943655  -44285.790695  0.000000
  -44285.790695  26315.235173  0.000000
  0.000000  0.000000  0.000000


  23145.372157  -39592.851709  0.000000
  -39592.851709  -33176.117202  0.000000
  0.000000  0.000000  0.000000


  -66695.300165  -18792.907963  0.000000
  -18792.907963  50508.124486  0.000000
  0.000000  0.000000  0.000000


  -3630.649664  -51200.105071  0.000000
  -51200.105071  -4792.757338  0.000000
  0.000000  0.000000  0.000000


  35402.701907  -15436.971032  0.000000
  -15436.971032  -49911.165029  0.000000
  0.000000  0.000000  0.000000


  -158411.467328  82466.154733  0.000000
  82466.154733  25515.619101  0.000000
  0.000000  0.000000  0.000000


  -44616.838442  -40018.571024  0.000000
  -40018.571024  33203.317365  0.000000
  0.000000  0.000000  0.000000


  17800.672152  -43762.346195  0.000000
  -43762.346195  -26894.723096  0.000000
  0.000000  0.000000  0.000000


  -74134.844912  -8525.468450  0.000000
  -8525.468450  53543.888029  0.000000
  0.000000  0.000000  0.000000


  -11380.418643  -51501.926703  0.000000
  -51501.926703  3066.734697  0.000000
  0.000000  0.000000  0.000000


  34418.302864  -21861.179965  0.000000
  -21861.179965  -46456.329068  0.000000
  0.000000  0.000000  0.000000


  -95317.792307  19683.328744  0.000000
  19683.328744  53790.630961  0.000000
  0.000000  0.000000  0.000000


  -27940.422786  -48239.947644  0.000000
  -48239.947644  19229.255843  0.000000
  0.000000  0.000000  0.000000


  28561.475642  -33789.314488  0.000000
  -33789.314488  -38418.417677  0.000000
  0.000000  0.000000  0.000000


  -59712.521947  -26827.985184  0.000000
  -26827.985184  45615.818371  0.000000
  0.000000  0.000000  0.000000


  3712.008097  -49822.682496  0.000000
  -49822.682496  -12530.155819  0.000000
  0.000000  0.000000  0.000000


  34415.132982  -8997.734626  0.000000
  -8997.734626  -51898.821799  0.000000
  0.000000  0.000000  0.000000


  -264250.759095  124023.346186  0.000000
  124023.346186  -3461.310193  0.000000
  0.000000  0.000000  0.000000


  -48287.988972  -37415.151674  0.000000
  -37415.151674  37576.995412  0.000000
  0.000000  0.000000  0.000000


  15040.075145  -45385.640851  0.000000
  -45385.640851  -23890.782432  0.000000
  0.000000  0.000000  0.000000


  41560.802936  -11572.480786  0.000000
  -11572.480786  -38825.647512  0.000000
  0.000000  0.000000  0.000000


  -78759.549546  -2852.335413  0.000000
  -2852.335413  54491.411122  0.000000
  0.000000  0.000000  0.000000


  -14932.675133  -51378.952767  0.000000
  -51378.952767  7230.302042  0.000000
  0.000000  0.000000  0.000000


  33436.764282  -25278.058333  0.000000
  -25278.058333  -45351.974882  0.000000
  0.000000  0.000000  0.000000


  -102896.331612  29647.424348  0.000000
  29647.424348  51799.170300  0.000000
  0.000000  0.000000  0.000000


  -31885.547296  -46589.829878  0.000000
  -46589.829878  23101.259198  0.000000
  0.000000  0.000000  0.000000


  25966.698621  -36826.600563  0.000000
  -36826.600563  -35998.110640  0.000000
  0.000000  0.000000  0.000000


  -62522.220437  -22742.777062  0.000000
  -22742.777062  48398.543232  0.000000
  0.000000  0.000000  0.000000


  344.105836  -50672.526523  0.000000
  -50672.526523  -8959.027807  0.000000
  0.000000  0.000000  0.000000


  35094.872006  -12388.494388  0.000000
  -12388.494388  -51149.851882  0.000000
  0.000000  0.000000  0.000000


  -130847.622322  53590.705823  0.000000
  53590.705823  36888.400254  0.000000
  0.000000  0.000000  0.000000


  -40340.271314  -42135.598593  0.000000
  -42135.598593  29647.226333  0.000000
  0.000000  0.000000  0.000000


  20253.040122  -42249.033046  0.000000
  -42249.033046  -30230.758639  0.000000
  0.000000  0.000000  0.000000


  -70002.112748  -13783.023761  0.000000
  -13783.023761  52296.759482  0.000000
  0.000000  0.000000  0.000000


  -7512.813434  -51413.349696  0.000000
  -51413.349696  -845.975429  0.000000
  0.000000  0.000000  0.000000


  35180.858329  -18280.135361  0.000000
  -18280.135361  -47840.747130  0.000000
  0.000000  0.000000  0.000000


  -89656.361934  11031.806371  0.000000
  11031.806371  54808.780430  0.000000
  0.000000  0.000000  0.000000


  -23594.059078  -49591.872329  0.000000
  -49591.872329  15095.703398  0.000000
  0.000000  0.000000  0.000000


  30473.155113  -30846.901917  0.000000
  -30846.901917  -40648.938173  0.000000
  0.000000  0.000000  0.000000


  -55414.331464  -30147.371785  0.000000
  -30147.371785  41954.709670  0.000000
  0.000000  0.000000  0.000000


  7078.668877  -48766.666090  0.000000
  -48766.666090  -16368.354780  0.000000
  0.000000  0.000000  0.000000


  33221.652745  -5986.542734  0.000000
  -5986.542734  -52247.475889  0.000000
  0.000000  0.000000  0.000000


  56472.190448  -9502.673573  0.000000
  -9502.673573  -15180.524190  0.000000
  0.000000  0.000000  0.000000


  65389.820136  2499.789759  0.000000
  2499.789759  -5143.263853  0.000000
  0.000000  0.000000  0.000000


  -1945005.278510  -433347.767331  0.000000
  -433347.767331  -395247.317098  0.000000
  0.000000  0.000000  0.000000


  65447.955724  6449.426232  0.000000
  6449.426232  -1318.645720  0.000000
  0.000000  0.000000  0.000000


  64973.129934  9676.850749  0.000000
  9676.850749  -1710.924289  0.000000
  0.000000  0.000000  0.000000


  63615.241923  11925.333343  0.000000
  11925.333343  463.110256  0.000000
  0.000000  0.000000  0.000000


  62050.846225  14558.709509  0.000000
  14558.709509  260.294352  0.000000
  0.000000  0.000000  0.000000


  61271.829174  16434.865728  0.000000
  16434.865728  2728.739532  0.000000
  0.000000  0.000000  0.000000


  60121.273643  18948.831894  0.000000
  18948.831894  2683.302179  0.000000
  0.000000  0.000000  0.000000


  60257.324328  21338.100938  0.000000
  21338.100938  5276.700112  0.000000
  0.000000  0.000000  0.000000


  58588.485731  24334.748959  0.000000
  24334.748959  5812.726332  0.000000
  0.000000  0.000000  0.000000


  58450.611547  26309.376867  0.000000
  26309.376867  9660.355207  0.000000
  0.000000  0.000000  0.000000


  56597.529928  29128.508592  0.000000
  29128.508592  10240.979245  0.000000
  0.000000  0.000000  0.000000


  57191.863120  31235.392769  0.000000
  31235.392769  14692.204811  0.000000
  0.000000  0.000000  0.000000


  55978.632400  34317.269265  0.000000
  34317.269265  15775.027843  0.000000
  0.000000  0.000000  0.000000


  55678.995777  38601.595683  0.000000
  38601.595683  20677.988445  0.000000
  0.000000  0.000000  0.000000


  56608.706840  53082.865914  0.000000
  53082.865914  41630.103889  0.000000
  0.000000  0.000000  0.000000


  77314.493991  77296.997288  0.000000
  77296.997288  85773.393273  0.000000
  0.000000  0.000000  0.000000


  462902.492016  340010.022107  0.000000
  340010.022107  389902.091178  0.000000
  0.000000  0.000000  0.000000


  54363.182547  44961.702759  0.000000
  44961.702759  27706.333989  0.000000
  0.000000  0.000000  0.000000


  61456.568847  63052.392397  0.000000
  63052.392397  59017.588072  0.000000
  0.000000  0.000000  0.000000


  145957.055150  129479.683239  0.000000
  129479.683239  152304.236549  0.000000
  0.000000  0.000000  0.000000


  56171.730706  40119.508865  0.000000
  40119.508865  24969.128032  0.000000
  0.000000  0.000000  0.000000


  56455.440251  59487.293507  0.000000
  59487.293507  48976.572676  0.000000
  0.000000  0.000000  0.000000


  86148.751784  107599.219866  0.000000
  107599.219866  116372.383890  0.000000
  0.000000  0.000000  0.000000


  1474840.378353  740869.490790  0.000000
  740869.490790  705883.149841  0.000000
  0.000000  0.000000  0.000000


  55608.285035  46878.266368  0.000000
  46878.266368  35564.038511  0.000000
  0.000000  0.000000  0.000000


  59059.877833  75275.606989  0.000000
  75275.606989  69170.940332  0.000000
  0.000000  0.000000  0.000000


  205771.418043  216783.391758  0.000000
  216783.391758  228733.359597  0.000000
  0.000000  0.000000  0.000000


  -638854.566409  200357.142134  0.000000
  200357.142134  127586.105173  0.000000
  0.000000  0.000000  0.000000


  -1042123.755984  80305.397109  0.000000
  80305.397109  11625.035970  0.000000
  0.000000  0.000000  0.000000


  -128166.317608  38134.841834  0.000000
  38134.841834  39306.718086  0.000000
  0.000000  0.000000  0.000000


  -141651.981858  28160.955093  0.000000
  28160.955093  52946.698432  0.000000
  0.000000  0.000000  0.000000


  -47848.361184  -42264.676612  0.000000
  -42264.676612  30026.964176  0.000000
  0.000000  0.000000  0.000000


  -44319.523488  -44177.421772  0.000000
  -44177.421772  33786.416011  0.000000
  0.000000  0.000000  0.000000


  32572.832969  -31385.096677  0.000000
  -31385.096677  -39661.786759  0.000000
  0.000000  0.000000  0.000000


  32956.523124  -32326.913485  0.000000
  -32326.913485  -42155.404400  0.000000
  0.000000  0.000000  0.000000


  -85567.572195  -6590.124938  0.000000
  -6590.124938  49263.563008  0.000000
  0.000000  0.000000  0.000000


  -84329.416870  -10525.984522  0.000000
  -10525.984522  55272.179978  0.000000
  0.000000  0.000000  0.000000


  6933.346246  -49264.355938  0.000000
  -49264.355938  -15573.256344  0.000000
  0.000000  0.000000  0.000000


  7756.211324  -50674.312728  0.000000
  -50674.312728  -15946.583704  0.000000
  0.000000  0.000000  0.000000


  -15745.103684  -51632.163777  0.000000
  -51632.163777  4495.607599  0.000000
  0.000000  0.000000  0.000000


  -14793.790834  -53090.695357  0.000000
  -53090.695357  6041.895250  0.000000
  0.000000  0.000000  0.000000


  -39980.790742  -45213.871427  0.000000
  -45213.871427  24587.167693  0.000000
  0.000000  0.000000  0.000000


  -38326.308337  -46460.539352  0.000000
  -46460.539352  27663.430871  0.000000
  0.000000  0.000000  0.000000


  21052.116389  -42825.636984  0.000000
  -42825.636984  -28055.717006  0.000000
  0.000000  0.000000  0.000000


  20580.283907  -43992.847879  0.000000
  -43992.847879  -30174.736145  0.000000
  0.000000  0.000000  0.000000


  -64616.997752  -29165.981374  0.000000
  -29165.981374  41418.568452  0.000000
  0.000000  0.000000  0.000000


  -61580.993604  -30985.457658  0.000000
  -30985.457658  45878.728414  0.000000
  0.000000  0.000000  0.000000


  41574.595085  -11456.284454  0.000000
  -11456.284454  -48357.953197  0.000000
  0.000000  0.000000  0.000000


  40961.459466  -11517.428047  0.000000
  -11517.428047  -52051.591270  0.000000
  0.000000  0.000000  0.000000


  35629.689704  -28865.923937  0.000000
  -28865.923937  -41731.399559  0.000000
  0.000000  0.000000  0.000000


  34269.834145  -29957.406676  0.000000
  -29957.406676  -45516.489769  0.000000
  0.000000  0.000000  0.000000


  -165068.282296  66622.685968  0.000000
  66622.685968  24490.728139  0.000000
  0.000000  0.000000  0.000000


  -177887.894643  45166.688589  0.000000
  45166.688589  46686.286387  0.000000
  0.000000  0.000000  0.000000


  -97912.872029  6986.301071  0.000000
  6986.301071  49120.338009  0.000000
  0.000000  0.000000  0.000000


  -98897.206181  1598.546803  0.000000
  1598.546803  57169.920826  0.000000
  0.000000  0.000000  0.000000


  -791.593503  -51644.467689  0.000000
  -51644.467689  -7783.885146  0.000000
  0.000000  0.000000  0.000000


  -1492.834855  -53199.840546  0.000000
  -53199.840546  -8454.101357  0.000000
  0.000000  0.000000  0.000000


  38045.907423  -22211.689948  0.000000
  -22211.689948  -45178.944961  0.000000
  0.000000  0.000000  0.000000


  38061.439397  -22540.674446  0.000000
  -22540.674446  -48069.065751  0.000000
  0.000000  0.000000  0.000000


  -31955.799335  -49193.409124  0.000000
  -49193.409124  17675.114248  0.000000
  0.000000  0.000000  0.000000


  -29175.604024  -50697.517021  0.000000
  -50697.517021  20749.576476  0.000000
  0.000000  0.000000  0.000000


  12450.313458  -47200.368139  0.000000
  -47200.368139  -20678.218126  0.000000
  0.000000  0.000000  0.000000


  12602.656056  -48678.835600  0.000000
  -48678.835600  -21555.703947  0.000000
  0.000000  0.000000  0.000000


  28957.593966  -37376.627586  0.000000
  -37376.627586  -35074.342424  0.000000
  0.000000  0.000000  0.000000


  27712.560913  -38490.816648  0.000000
  -38490.816648  -38135.055871  0.000000
  0.000000  0.000000  0.000000


  39903.168457  -17409.399878  0.000000
  -17409.399878  -46954.655984  0.000000
  0.000000  0.000000  0.000000


  39100.812323  -17760.453367  0.000000
  -17760.453367  -49905.699506  0.000000
  0.000000  0.000000  0.000000


  -105452.505034  15520.942908  0.000000
  15520.942908  47653.853105  0.000000
  0.000000  0.000000  0.000000


  -108681.572110  9061.158171  0.000000
  9061.158171  56885.702486  0.000000
  0.000000  0.000000  0.000000


  -51710.835467  -39400.782102  0.000000
  -39400.782102  32876.344512  0.000000
  0.000000  0.000000  0.000000


  -48997.589843  -40945.788579  0.000000
  -40945.788579  36760.588308  0.000000
  0.000000  0.000000  0.000000


  51267.548880  -5386.651960  0.000000
  -5386.651960  -48201.572887  0.000000
  0.000000  0.000000  0.000000


  50998.936952  -12135.886974  0.000000
  -12135.886974  -37935.526226  0.000000
  0.000000  0.000000  0.000000


  -73476.349961  -21623.104609  0.000000
  -21623.104609  45528.928470  0.000000
  0.000000  0.000000  0.000000


  -71363.976778  -22604.665499  0.000000
  -22604.665499  50981.618919  0.000000
  0.000000  0.000000  0.000000


  -7439.716724  -52299.974696  0.000000
  -52299.974696  -3526.050334  0.000000
  0.000000  0.000000  0.000000


  -5204.547033  -53719.200306  0.000000
  -53719.200306  -1825.110646  0.000000
  0.000000  0.000000  0.000000


  10685.654949  -48284.552521  0.000000
  -48284.552521  -19997.435577  0.000000
  0.000000  0.000000  0.000000


  13403.502620  -49663.742570  0.000000
  -49663.742570  -19545.948000  0.000000
  0.000000  0.000000  0.000000


  26664.518641  -38059.868356  0.000000
  -38059.868356  -34447.553917  0.000000
  0.000000  0.000000  0.000000


  28535.573368  -38985.640068  0.000000
  -38985.640068  -35884.207006  0.000000
  0.000000  0.000000  0.000000


  -83849.059054  -11672.618495  0.000000
  -11672.618495  48480.256331  0.000000
  0.000000  0.000000  0.000000


  -81521.053947  -12412.171523  0.000000
  -12412.171523  55121.605168  0.000000
  0.000000  0.000000  0.000000


  9184.991494  -49371.790195  0.000000
  -49371.790195  -16702.244361  0.000000
  0.000000  0.000000  0.000000


  7530.933527  -50884.946323  0.000000
  -50884.946323  -18304.864290  0.000000
  0.000000  0.000000  0.000000


  37289.009490  -23813.029755  0.000000
  -23813.029755  -44782.375961  0.000000
  0.000000  0.000000  0.000000


  39681.653017  -23306.236920  0.000000
  -23306.236920  -47157.537542  0.000000
  0.000000  0.000000  0.000000


  -451647.468431  213849.290361  0.000000
  213849.290361  -20510.598321  0.000000
  0.000000  0.000000  0.000000


  -718018.259656  75779.083542  0.000000
  75779.083542  28722.637435  0.000000
  0.000000  0.000000  0.000000


  -131079.862199  29488.042004  0.000000
  29488.042004  44771.870399  0.000000
  0.000000  0.000000  0.000000


  -128324.363888  26354.716902  0.000000
  26354.716902  57459.282305  0.000000
  0.000000  0.000000  0.000000


  -76562.686584  -17869.939424  0.000000
  -17869.939424  47073.075123  0.000000
  0.000000  0.000000  0.000000


  -73306.246650  -20929.911993  0.000000
  -20929.911993  51583.593571  0.000000
  0.000000  0.000000  0.000000


  -9176.369286  -52114.143316  0.000000
  -52114.143316  -26.790508  0.000000
  0.000000  0.000000  0.000000


  -10318.333163  -53618.458818  0.000000
  -53618.458818  -244.067983  0.000000
  0.000000  0.000000  0.000000


  43197.445596  -8619.006619  0.000000
  -8619.006619  -49377.640005  0.000000
  0.000000  0.000000  0.000000


  41696.774735  -11066.829757  0.000000
  -11066.829757  -51982.965166  0.000000
  0.000000  0.000000  0.000000


  -54612.760025  -37578.973704  0.000000
  -37578.973704  35468.284959  0.000000
  0.000000  0.000000  0.000000


  -51497.385759  -40023.299666  0.000000
  -40023.299666  37650.193224  0.000000
  0.000000  0.000000  0.000000


  -37577.642780  -46070.183872  0.000000
  -46070.183872  23751.444204  0.000000
  0.000000  0.000000  0.000000


  -39311.027440  -47018.973231  0.000000
  -47018.973231  25644.848076  0.000000
  0.000000  0.000000  0.000000


  23540.276073  -42478.092618  0.000000
  -42478.092618  -29910.718658  0.000000
  0.000000  0.000000  0.000000


  21542.522614  -43635.843783  0.000000
  -43635.843783  -32060.713039  0.000000
  0.000000  0.000000  0.000000


  35103.566796  -30376.432265  0.000000
  -30376.432265  -41038.423227  0.000000
  0.000000  0.000000  0.000000


  33182.810639  -31497.064868  0.000000
  -31497.064868  -44143.698501  0.000000
  0.000000  0.000000  0.000000


  -173892.061926  76362.173478  0.000000
  76362.173478  23062.010625  0.000000
  0.000000  0.000000  0.000000


  -221468.275950  52821.397193  0.000000
  52821.397193  47007.707542  0.000000
  0.000000  0.000000  0.000000


  -28805.527114  -49288.534878  0.000000
  -49288.534878  16631.557536  0.000000
  0.000000  0.000000  0.000000


  -29450.598615  -50624.006499  0.000000
  -50624.006499  18068.017331  0.000000
  0.000000  0.000000  0.000000


  -67044.207662  -26801.990388  0.000000
  -26801.990388  43318.709544  0.000000
  0.000000  0.000000  0.000000


  -64219.850155  -29966.082792  0.000000
  -29966.082792  45071.536645  0.000000
  0.000000  0.000000  0.000000


  -97397.122184  579.004864  0.000000
  579.004864  49676.616547  0.000000
  0.000000  0.000000  0.000000


  -94216.952669  -856.493424  0.000000
  -856.493424  58328.860470  0.000000
  0.000000  0.000000  0.000000


  768.321895  -51472.718681  0.000000
  -51472.718681  -11532.256751  0.000000
  0.000000  0.000000  0.000000


  715.999254  -53981.826976  0.000000
  -53981.826976  -10351.468573  0.000000
  0.000000  0.000000  0.000000


  -48656.401345  -40623.613884  0.000000
  -40623.613884  31680.916457  0.000000
  0.000000  0.000000  0.000000


  -49500.538117  -41247.864896  0.000000
  -41247.864896  34471.810494  0.000000
  0.000000  0.000000  0.000000


  33047.002159  -33199.694152  0.000000
  -33199.694152  -39071.064647  0.000000
  0.000000  0.000000  0.000000


  31111.709223  -34257.663209  0.000000
  -34257.663209  -41417.622255  0.000000
  0.000000  0.000000  0.000000


  54997.914597  -2919.084176  0.000000
  -2919.084176  -24010.383832  0.000000
  0.000000  0.000000  0.000000


  55390.364609  -13933.880735  0.000000
  -13933.880735  -36880.333455  0.000000
  0.000000  0.000000  0.000000


  -18506.769373  -52283.356908  0.000000
  -52283.356908  6307.534502  0.000000
  0.000000  0.000000  0.000000


  -15551.840305  -53550.565785  0.000000
  -53550.565785  8362.865093  0.000000
  0.000000  0.000000  0.000000


  41486.153606  -15506.637300  0.000000
  -15506.637300  -48046.548093  0.000000
  0.000000  0.000000  0.000000


  39722.370521  -17289.271631  0.000000
  -17289.271631  -49714.390102  0.000000
  0.000000  0.000000  0.000000


  -105778.145327  8519.033308  0.000000
  8519.033308  49193.381407  0.000000
  0.000000  0.000000  0.000000


  -102373.198927  6522.906552  0.000000
  6522.906552  59127.366575  0.000000
  0.000000  0.000000  0.000000


  -57975.552958  -34897.179798  0.000000
  -34897.179798  37264.088379  0.000000
  0.000000  0.000000  0.000000


  -55613.407434  -36373.198208  0.000000
  -36373.198208  41519.734531  0.000000
  0.000000  0.000000  0.000000


  -36450.079491  -47596.225088  0.000000
  -47596.225088  21274.863629  0.000000
  0.000000  0.000000  0.000000


  -33519.544786  -49129.951312  0.000000
  -49129.951312  24476.314293  0.000000
  0.000000  0.000000  0.000000


  19210.890574  -43679.076813  0.000000
  -43679.076813  -28095.592868  0.000000
  0.000000  0.000000  0.000000


  21693.373589  -44797.983029  0.000000
  -44797.983029  -28079.983027  0.000000
  0.000000  0.000000  0.000000


  -61028.380820  -32740.239132  0.000000
  -32740.239132  39554.624898  0.000000
  0.000000  0.000000  0.000000


  -57713.894475  -35168.658547  0.000000
  -35168.658547  41769.123518  0.000000
  0.000000  0.000000  0.000000


  -13528.181338  -52162.843540  0.000000
  -52162.843540  3853.172458  0.000000
  0.000000  0.000000  0.000000


  -15378.060085  -53690.815748  0.000000
  -53690.815748  3790.331868  0.000000
  0.000000  0.000000  0.000000


  42751.524257  -8515.090602  0.000000
  -8515.090602  -48704.612650  0.000000
  0.000000  0.000000  0.000000


  41864.320323  -8681.868156  0.000000
  -8681.868156  -52047.070763  0.000000
  0.000000  0.000000  0.000000


  37814.083522  -25563.395390  0.000000
  -25563.395390  -43882.235895  0.000000
  0.000000  0.000000  0.000000


  36319.218135  -26383.805528  0.000000
  -26383.805528  -47356.387188  0.000000
  0.000000  0.000000  0.000000


  23992.181093  -40547.855695  0.000000
  -40547.855695  -31319.996149  0.000000
  0.000000  0.000000  0.000000


  24828.607723  -41567.769608  0.000000
  -41567.769608  -33090.168851  0.000000
  0.000000  0.000000  0.000000


  -80720.015268  -12288.811423  0.000000
  -12288.811423  48408.128604  0.000000
  0.000000  0.000000  0.000000


  -78759.316634  -15979.052069  0.000000
  -15979.052069  54025.940263  0.000000
  0.000000  0.000000  0.000000


  4920.667857  -50505.156038  0.000000
  -50505.156038  -14808.895201  0.000000
  0.000000  0.000000  0.000000


  7625.590578  -51688.285894  0.000000
  -51688.285894  -13828.651859  0.000000
  0.000000  0.000000  0.000000


  -328864.130416  161376.920546  0.000000
  161376.920546  -10692.484043  0.000000
  0.000000  0.000000  0.000000


  -534166.220760  73901.681922  0.000000
  73901.681922  16535.427436  0.000000
  0.000000  0.000000  0.000000


  -138759.967851  43899.256703  0.000000
  43899.256703  37765.217977  0.000000
  0.000000  0.000000  0.000000


  -163089.131120  29957.922417  0.000000
  29957.922417  52513.385930  0.000000
  0.000000  0.000000  0.000000


  -43114.128776  -44463.589550  0.000000
  -44463.589550  27036.928597  0.000000
  0.000000  0.000000  0.000000


  -39897.195421  -45920.272339  0.000000
  -45920.272339  29334.558429  0.000000
  0.000000  0.000000  0.000000


  -22753.254453  -51510.072380  0.000000
  -51510.072380  10112.572124  0.000000
  0.000000  0.000000  0.000000


  -19962.356384  -53052.052062  0.000000
  -53052.052062  12438.127724  0.000000
  0.000000  0.000000  0.000000


  40741.776393  -14704.524863  0.000000
  -14704.524863  -47574.917881  0.000000
  0.000000  0.000000  0.000000


  40409.091977  -14794.106947  0.000000
  -14794.106947  -51428.939990  0.000000
  0.000000  0.000000  0.000000


  -116208.313614  18025.069283  0.000000
  18025.069283  47510.269101  0.000000
  0.000000  0.000000  0.000000


  -112665.793659  15070.485608  0.000000
  15070.485608  59657.839601  0.000000
  0.000000  0.000000  0.000000


  29467.687580  -35440.935212  0.000000
  -35440.935212  -37441.553200  0.000000
  0.000000  0.000000  0.000000


  30982.316260  -38386.038188  0.000000
  -38386.038188  -37950.680748  0.000000
  0.000000  0.000000  0.000000


  47807.119440  -2688.973590  0.000000
  -2688.973590  -49308.651946  0.000000
  0.000000  0.000000  0.000000


  48987.291653  -10178.343324  0.000000
  -10178.343324  -49137.487731  0.000000
  0.000000  0.000000  0.000000


  -69454.780796  -25743.799360  0.000000
  -25743.799360  43381.104714  0.000000
  0.000000  0.000000  0.000000


  -66210.715347  -27609.422650  0.000000
  -27609.422650  49185.490702  0.000000
  0.000000  0.000000  0.000000


  -224437.199309  113362.351508  0.000000
  113362.351508  -5977.517791  0.000000
  0.000000  0.000000  0.000000


  -288491.410444  74902.641019  0.000000
  74902.641019  32887.759979  0.000000
  0.000000  0.000000  0.000000


  -27441.702565  -50573.970505  0.000000
  -50573.970505  13689.936934  0.000000
  0.000000  0.000000  0.000000


  -24432.031036  -52203.950482  0.000000
  -52203.950482  16823.138135  0.000000
  0.000000  0.000000  0.000000


  15866.888508  -45466.747451  0.000000
  -45466.747451  -24545.525676  0.000000
  0.000000  0.000000  0.000000


  17313.048293  -46753.499360  0.000000
  -46753.499360  -24740.472914  0.000000
  0.000000  0.000000  0.000000


  -91333.025474  -296.349826  0.000000
  -296.349826  49509.169581  0.000000
  0.000000  0.000000  0.000000


  -90927.879939  -4847.841604  0.000000
  -4847.841604  56352.745118  0.000000
  0.000000  0.000000  0.000000


  -3093.071179  -52090.912713  0.000000
  -52090.912713  -7093.759635  0.000000
  0.000000  0.000000  0.000000


  -780.678139  -53538.625731  0.000000
  -53538.625731  -6108.073113  0.000000
  0.000000  0.000000  0.000000


  38871.469300  -19165.390143  0.000000
  -19165.390143  -46530.083228  0.000000
  0.000000  0.000000  0.000000


  40753.586373  -18303.547938  0.000000
  -18303.547938  -49017.912751  0.000000
  0.000000  0.000000  0.000000


  45850.247734  -5581.137376  0.000000
  -5581.137376  -48841.334125  0.000000
  0.000000  0.000000  0.000000


  43948.001909  -7488.423558  0.000000
  -7488.423558  -50687.219344  0.000000
  0.000000  0.000000  0.000000


  -71538.425703  -22120.565049  0.000000
  -22120.565049  45410.276455  0.000000
  0.000000  0.000000  0.000000


  -69556.067393  -26019.443767  0.000000
  -26019.443767  49073.231563  0.000000
  0.000000  0.000000  0.000000


  -11682.040457  -52332.924707  0.000000
  -52332.924707  307.751577  0.000000
  0.000000  0.000000  0.000000


  -9546.208363  -53710.851271  0.000000
  -53710.851271  2184.777135  0.000000
  0.000000  0.000000  0.000000


  44232.225638  -5506.816575  0.000000
  -5506.816575  -49584.374363  0.000000
  0.000000  0.000000  0.000000


  43397.458978  -9116.413196  0.000000
  -9116.413196  -51471.904148  0.000000
  0.000000  0.000000  0.000000


  -114873.962792  25963.583505  0.000000
  25963.583505  44491.782257  0.000000
  0.000000  0.000000  0.000000


  -121935.406182  17715.379825  0.000000
  17715.379825  55948.228367  0.000000
  0.000000  0.000000  0.000000


  -55325.330779  -36471.646988  0.000000
  -36471.646988  35843.041037  0.000000
  0.000000  0.000000  0.000000


  -56303.251321  -36914.845680  0.000000
  -36914.845680  39371.718750  0.000000
  0.000000  0.000000  0.000000


  -33151.262202  -47843.274088  0.000000
  -47843.274088  20008.059097  0.000000
  0.000000  0.000000  0.000000


  -33647.149159  -49119.747394  0.000000
  -49119.747394  21868.851435  0.000000
  0.000000  0.000000  0.000000


  -4958.582066  -51961.500931  0.000000
  -51961.500931  -3817.810450  0.000000
  0.000000  0.000000  0.000000


  -6020.115843  -53536.465740  0.000000
  -53536.465740  -4347.272812  0.000000
  0.000000  0.000000  0.000000


  40006.140267  -20428.638162  0.000000
  -20428.638162  -46442.897226  0.000000
  0.000000  0.000000  0.000000


  38271.269996  -21744.618176  0.000000
  -21744.618176  -48765.408607  0.000000
  0.000000  0.000000  0.000000


  -261160.246440  135387.560474  0.000000
  135387.560474  -7120.526547  0.000000
  0.000000  0.000000  0.000000


  -365934.787612  108195.574265  0.000000
  108195.574265  40396.697442  0.000000
  0.000000  0.000000  0.000000


  14945.444936  -47303.158726  0.000000
  -47303.158726  -21935.867934  0.000000
  0.000000  0.000000  0.000000


  13096.274307  -48597.522283  0.000000
  -48597.522283  -23836.741792  0.000000
  0.000000  0.000000  0.000000


  26277.315679  -40022.244420  0.000000
  -40022.244420  -32644.484257  0.000000
  0.000000  0.000000  0.000000


  24696.450561  -41373.356249  0.000000
  -41373.356249  -35148.376963  0.000000
  0.000000  0.000000  0.000000


  -78410.756182  -16971.774878  0.000000
  -16971.774878  47100.787142  0.000000
  0.000000  0.000000  0.000000


  -76163.887379  -17846.169490  0.000000
  -17846.169490  53432.678092  0.000000
  0.000000  0.000000  0.000000


  -160740.783351  53086.937610  0.000000
  53086.937610  33727.026334  0.000000
  0.000000  0.000000  0.000000


  -159976.700387  44702.371667  0.000000
  44702.371667  52600.586031  0.000000
  0.000000  0.000000  0.000000


  -44013.405809  -43185.227749  0.000000
  -43185.227749  27810.374357  0.000000
  0.000000  0.000000  0.000000


  -43159.808804  -44531.683082  0.000000
  -44531.683082  30996.307223  0.000000
  0.000000  0.000000  0.000000


  30582.096053  -34100.640740  0.000000
  -34100.640740  -37773.831015  0.000000
  0.000000  0.000000  0.000000


  30801.062593  -35000.254134  0.000000
  -35000.254134  -39848.296716  0.000000
  0.000000  0.000000  0.000000


  3127.468161  -50506.218611  0.000000
  -50506.218611  -11696.773662  0.000000
  0.000000  0.000000  0.000000


  3149.530717  -51886.072093  0.000000
  -51886.072093  -12364.208710  0.000000
  0.000000  0.000000  0.000000


  -20004.237767  -51197.824799  0.000000
  -51197.824799  8516.650996  0.000000
  0.000000  0.000000  0.000000


  -20013.896600  -52608.164437  0.000000
  -52608.164437  10037.070700  0.000000
  0.000000  0.000000  0.000000


  42536.851567  -12120.914445  0.000000
  -12120.914445  -48831.979387  0.000000
  0.000000  0.000000  0.000000


  40753.776450  -13891.803432  0.000000
  -13891.803432  -51819.829700  0.000000
  0.000000  0.000000  0.000000


  18200.818209  -45254.702914  0.000000
  -45254.702914  -24955.819635  0.000000
  0.000000  0.000000  0.000000


  16679.322666  -46557.476997  0.000000
  -46557.476997  -27170.073212  0.000000
  0.000000  0.000000  0.000000


  -61373.298146  -31563.152903  0.000000
  -31563.152903  39833.363037  0.000000
  0.000000  0.000000  0.000000


  -61241.695756  -31799.339685  0.000000
  -31799.339685  43800.920273  0.000000
  0.000000  0.000000  0.000000


  -90114.234372  -5928.077275  0.000000
  -5928.077275  49392.439360  0.000000
  0.000000  0.000000  0.000000


  -87480.818743  -6828.381145  0.000000
  -6828.381145  56618.347520  0.000000
  0.000000  0.000000  0.000000


  35638.876574  -26866.083747  0.000000
  -26866.083747  -43223.782915  0.000000
  0.000000  0.000000  0.000000


  37086.102963  -27069.006546  0.000000
  -27069.006546  -45455.469686  0.000000
  0.000000  0.000000  0.000000


  -207553.724173  96678.903528  0.000000
  96678.903528  10868.340320  0.000000
  0.000000  0.000000  0.000000


  -229505.475724  73708.277448  0.000000
  73708.277448  46243.647380  0.000000
  0.000000  0.000000  0.000000


  -24273.452555  -50352.276119  0.000000
  -50352.276119  12597.369276  0.000000
  0.000000  0.000000  0.000000


  -24645.167149  -51901.142179  0.000000
  -51901.142179  13861.125431  0.000000
  0.000000  0.000000  0.000000


  -1053408.766370  -228996.239107  0.000000
  -228996.239107  -232324.519277  0.000000
  0.000000  0.000000  0.000000


  60827.660749  -713.866550  0.000000
  -713.866550  -1850.406478  0.000000
  0.000000  0.000000  0.000000


  53187.514347  -9780.341498  0.000000
  -9780.341498  -17451.750959  0.000000
  0.000000  0.000000  0.000000


  60896.184468  4428.594322  0.000000
  4428.594322  -214.029773  0.000000
  0.000000  0.000000  0.000000


  60813.369869  -380.820039  0.000000
  -380.820039  -10617.359756  0.000000
  0.000000  0.000000  0.000000


  -1232255.580304  -467303.173941  0.000000
  -467303.173941  -289897.323417  0.000000
  0.000000  0.000000  0.000000


  65660.992319  7465.566394  0.000000
  7465.566394  557.273341  0.000000
  0.000000  0.000000  0.000000


  62262.707070  4094.343167  0.000000
  4094.343167  -8910.390279  0.000000
  0.000000  0.000000  0.000000


  -1124087.272979  -48741.405556  0.000000
  -48741.405556  -352096.666176  0.000000
  0.000000  0.000000  0.000000


  -995941.028517  -340947.724555  0.000000
  -340947.724555  -65130.244879  0.000000
  0.000000  0.000000  0.000000


  -1200597.004978  -233274.506370  0.000000
  -233274.506370  -203008.390069  0.000000
  0.000000  0.000000  0.000000


  64924.040966  10868.007024  0.000000
  10868.007024  1608.806358  0.000000
  0.000000  0.000000  0.000000


  65088.033919  8829.300110  0.000000
  8829.300110  -4768.471902  0.000000
  0.000000  0.000000  0.000000


  67232.253468  13207.015707  0.000000
  13207.015707  2624.031561  0.000000
  0.000000  0.000000  0.000000


  64944.238667  12095.971069  0.000000
  12095.971069  -4749.786930  0.000000
  0.000000  0.000000  0.000000


  65912.454045  16484.612331  0.000000
  16484.612331  4096.102319  0.000000
  0.000000  0.000000  0.000000


  66652.688145  14887.499220  0.000000
  14887.499220  -1666.327024  0.000000
  0.000000  0.000000  0.000000


  67704.384678  18399.177138  0.000000
  18399.177138  5263.237803  0.000000
  0.000000  0.000000  0.000000


  65707.295715  17955.683404  0.000000
  17955.683404  -1513.296964  0.000000
  0.000000  0.000000  0.000000


  65925.709601  21588.282027  0.000000
  21588.282027  7033.155943  0.000000
  0.000000  0.000000  0.000000


  67766.346703  19944.432754  0.000000
  19944.432754  1299.089752  0.000000
  0.000000  0.000000  0.000000


  68574.873986  24378.860554  0.000000
  24378.860554  9057.924064  0.000000
  0.000000  0.000000  0.000000


  66271.627741  23946.581914  0.000000
  23946.581914  302.197562  0.000000
  0.000000  0.000000  0.000000


  65859.814216  27989.841569  0.000000
  27989.841569  12005.486722  0.000000
  0.000000  0.000000  0.000000


  69161.597177  26342.988042  0.000000
  26342.988042  4277.997833  0.000000
  0.000000  0.000000  0.000000


  68944.881055  30657.045501  0.000000
  30657.045501  14325.205893  0.000000
  0.000000  0.000000  0.000000


  66979.630683  30248.076056  0.000000
  30248.076056  5113.070302  0.000000
  0.000000  0.000000  0.000000


  65735.278119  34132.885510  0.000000
  34132.885510  17947.639212  0.000000
  0.000000  0.000000  0.000000


  71532.950573  32503.795849  0.000000
  32503.795849  9209.356323  0.000000
  0.000000  0.000000  0.000000


  70168.942433  37513.578775  0.000000
  37513.578775  21120.213385  0.000000
  0.000000  0.000000  0.000000


  69117.583619  36658.482763  0.000000
  36658.482763  10354.714064  0.000000
  0.000000  0.000000  0.000000


  66682.882219  40943.277751  0.000000
  40943.277751  25030.910624  0.000000
  0.000000  0.000000  0.000000


  76425.745772  39401.828393  0.000000
  39401.828393  14926.527263  0.000000
  0.000000  0.000000  0.000000


  71315.827563  47480.254061  0.000000
  47480.254061  33179.585280  0.000000
  0.000000  0.000000  0.000000


  72300.850318  48576.525480  0.000000
  48576.525480  14222.951282  0.000000
  0.000000  0.000000  0.000000


  69957.802152  54594.959968  0.000000
  54594.959968  45612.285314  0.000000
  0.000000  0.000000  0.000000


  79080.775653  54261.566083  0.000000
  54261.566083  31616.574622  0.000000
  0.000000  0.000000  0.000000


  80962.147577  78097.163525  0.000000
  78097.163525  79810.260251  0.000000
  0.000000  0.000000  0.000000


  111011.048755  79647.712649  0.000000
  79647.712649  50737.111367  0.000000
  0.000000  0.000000  0.000000


  93885.543871  102372.696855  0.000000
  102372.696855  121875.123681  0.000000
  0.000000  0.000000  0.000000


  134973.621479  102577.431829  0.000000
  102577.431829  79134.890497  0.000000
  0.000000  0.000000  0.000000


  97660.465432  115508.101273  0.000000
  115508.101273  129856.071943  0.000000
  0.000000  0.000000  0.000000


  187738.824537  143648.592412  0.000000
  143648.592412  103027.365940  0.000000
  0.000000  0.000000  0.000000


  178867.443748  195600.046168  0.000000
  195600.046168  188739.437506  0.000000
  0.000000  0.000000  0.000000


  384579.097464  229676.900811  0.000000
  229676.900811  150247.771156  0.000000
  0.000000  0.000000  0.000000


  1332807.780689  -15029.244499  0.000000
  -15029.244499  247345.462715  0.000000
  0.000000  0.000000  0.000000


  -790085.253328  -158619.536353  0.000000
  -158619.536353  -361533.456970  0.000000
  0.000000  0.000000  0.000000


  79579.191267  70160.687330  0.000000
  70160.687330  64623.596441  0.000000
  0.000000  0.000000  0.000000


  90596.180169  72628.797080  0.000000
  72628.797080  42244.122718  0.000000
  0.000000  0.000000  0.000000


  94945.609486  93546.813390  0.000000
  93546.813390  94047.194560  0.000000
  0.000000  0.000000  0.000000


  105786.180425  96135.603164  0.000000
  96135.603164  68856.897894  0.000000
  0.000000  0.000000  0.000000


  122879.370226  144781.941646  0.000000
  144781.941646  182558.275017  0.000000
  0.000000  0.000000  0.000000


  254768.632737  165431.647634  0.000000
  165431.647634  121909.010233  0.000000
  0.000000  0.000000  0.000000


  245147.807623  276417.294700  0.000000
  276417.294700  279657.813826  0.000000
  0.000000  0.000000  0.000000


  360966.671061  209073.294782  0.000000
  209073.294782  61582.202771  0.000000
  0.000000  0.000000  0.000000


  396770.406897  384409.779536  0.000000
  384409.779536  163694.573871  0.000000
  0.000000  0.000000  0.000000


  846365.715727  408535.802933  0.000000
  408535.802933  237734.125817  0.000000
  0.000000  0.000000  0.000000


  74641.510212  51415.355362  0.000000
  51415.355362  36134.563050  0.000000
  0.000000  0.000000  0.000000


  72284.928803  52786.999699  0.000000
  52786.999699  28687.654476  0.000000
  0.000000  0.000000  0.000000


  71599.593927  61069.789146  0.000000
  61069.789146  52191.199140  0.000000
  0.000000  0.000000  0.000000


  95160.843724  61345.239689  0.000000
  61345.239689  35167.094575  0.000000
  0.000000  0.000000  0.000000


  1977119.413208  -238175.084042  0.000000
  -238175.084042  327543.565910  0.000000
  0.000000  0.000000  0.000000


  -913322.928923  -423187.155427  0.000000
  -423187.155427  -219852.118222  0.000000
  0.000000  0.000000  0.000000


  -877225.119854  -403999.400552  0.000000
  -403999.400552  -186521.694644  0.000000
  0.000000  0.000000  0.000000


  -993301.877275  -211627.527863  0.000000
  -211627.527863  -129450.029874  0.000000
  0.000000  0.000000  0.000000


  -758614.725565  -169022.622734  0.000000
  -169022.622734  -119321.671109  0.000000
  0.000000  0.000000  0.000000


  1120685.904355  134692.669632  0.000000
  134692.669632  673546.072303  0.000000
  0.000000  0.000000  0.000000


  901446.808460  8561.481530  0.000000
  8561.481530  103598.204618  0.000000
  0.000000  0.000000  0.000000


  878631.341516  -176535.421408  0.000000
  -176535.421408  -45464.151833  0.000000
  0.000000  0.000000  0.000000


  -767312.546133  -361636.588206  0.000000
  -361636.588206  -183222.753615  0.000000
  0.000000  0.000000  0.000000


  -745925.971441  -349298.387587  0.000000
  -349298.387587  -150077.496380  0.000000
  0.000000  0.000000  0.000000


  -864500.002646  -243772.892174  0.000000
  -243772.892174  -109174.625329  0.000000
  0.000000  0.000000  0.000000


  36446.557378  -35392.688204  0.000000
  -35392.688204  -39741.669926  0.000000
  0.000000  0.000000  0.000000


  32072.801634  -35904.661151  0.000000
  -35904.661151  -38671.124365  0.000000
  0.000000  0.000000  0.000000


  3843.738748  -52812.362391  0.000000
  -52812.362391  -9846.863674  0.000000
  0.000000  0.000000  0.000000


  4668.370788  -52593.702380  0.000000
  -52593.702380  -14780.203848  0.000000
  0.000000  0.000000  0.000000


  48112.579328  -17252.640176  0.000000
  -17252.640176  -49935.740547  0.000000
  0.000000  0.000000  0.000000


  41035.972098  -27031.098179  0.000000
  -27031.098179  -45613.924430  0.000000
  0.000000  0.000000  0.000000


  -12511.586146  -54637.467161  0.000000
  -54637.467161  2534.898377  0.000000
  0.000000  0.000000  0.000000


  -135136.523096  12732.233168  0.000000
  12732.233168  55113.517752  0.000000
  0.000000  0.000000  0.000000


  16449.534107  -48906.649750  0.000000
  -48906.649750  -22848.761824  0.000000
  0.000000  0.000000  0.000000


  -523615.954142  61880.778162  0.000000
  61880.778162  84880.186538  0.000000
  0.000000  0.000000  0.000000


  -38187.307862  -49965.004712  0.000000
  -49965.004712  22855.483774  0.000000
  0.000000  0.000000  0.000000


  54068.743904  -10960.944950  0.000000
  -10960.944950  -50775.729241  0.000000
  0.000000  0.000000  0.000000


  -101220.124296  -10673.919341  0.000000
  -10673.919341  53359.192658  0.000000
  0.000000  0.000000  0.000000


  39065.220270  -30076.279678  0.000000
  -30076.279678  -44530.542325  0.000000
  0.000000  0.000000  0.000000


  -80250.587643  -26595.927673  0.000000
  -26595.927673  48101.003241  0.000000
  0.000000  0.000000  0.000000


  -33871.138687  -51813.244503  0.000000
  -51813.244503  18823.719211  0.000000
  0.000000  0.000000  0.000000


  -94101.436383  -16573.069496  0.000000
  -16573.069496  51836.730752  0.000000
  0.000000  0.000000  0.000000


  -8215.513073  -54858.144175  0.000000
  -54858.144175  -1913.908124  0.000000
  0.000000  0.000000  0.000000


  -50082.728315  -44971.653008  0.000000
  -44971.653008  31647.078685  0.000000
  0.000000  0.000000  0.000000


  50959.031166  -14173.126864  0.000000
  -14173.126864  -50423.686306  0.000000
  0.000000  0.000000  0.000000


  -73058.920090  -30269.063975  0.000000
  -30269.063975  45782.357202  0.000000
  0.000000  0.000000  0.000000


  60552.034180  -7843.855080  0.000000
  -7843.855080  -46283.754303  0.000000
  0.000000  0.000000  0.000000


  -156061.362182  24345.652335  0.000000
  24345.652335  54891.791892  0.000000
  0.000000  0.000000  0.000000


  -121460.497178  3469.709516  0.000000
  3469.709516  55094.619605  0.000000
  0.000000  0.000000  0.000000


  -350144.015636  68763.041299  0.000000
  68763.041299  65304.940153  0.000000
  0.000000  0.000000  0.000000


  -111069.820700  -4667.475299  0.000000
  -4667.475299  54159.963384  0.000000
  0.000000  0.000000  0.000000


  38949.314219  -32501.767331  0.000000
  -32501.767331  -42142.372423  0.000000
  0.000000  0.000000  0.000000


  -29040.811763  -53041.174497  0.000000
  -53041.174497  15555.120177  0.000000
  0.000000  0.000000  0.000000


  55807.944433  -8412.782747  0.000000
  -8412.782747  -50662.556342  0.000000
  0.000000  0.000000  0.000000


  25514.932905  -44318.268989  0.000000
  -44318.268989  -30513.974442  0.000000
  0.000000  0.000000  0.000000


  -24101.757824  -53909.937623  0.000000
  -53909.937623  11087.769045  0.000000
  0.000000  0.000000  0.000000


  983194.754725  -235616.551736  0.000000
  -235616.551736  165161.716268  0.000000
  0.000000  0.000000  0.000000


  516875.402614  -169155.952632  0.000000
  -169155.952632  -9043.755475  0.000000
  0.000000  0.000000  0.000000


  64674.397702  -6753.232449  0.000000
  -6753.232449  -20380.200858  0.000000
  0.000000  0.000000  0.000000


  65726.361530  2007.847664  0.000000
  2007.847664  -5977.668684  0.000000
  0.000000  0.000000  0.000000


  70212.004111  10939.383741  0.000000
  10939.383741  -2475.073552  0.000000
  0.000000  0.000000  0.000000


  73700.817910  18158.000255  0.000000
  18158.000255  704.073823  0.000000
  0.000000  0.000000  0.000000


  75158.393136  24029.843135  0.000000
  24029.843135  3099.004950  0.000000
  0.000000  0.000000  0.000000


  78719.472066  32706.683702  0.000000
  32706.683702  8701.003837  0.000000
  0.000000  0.000000  0.000000


  81853.386843  40805.548073  0.000000
  40805.548073  15207.793637  0.000000
  0.000000  0.000000  0.000000


  99576.834637  61132.780666  0.000000
  61132.780666  29967.360829  0.000000
  0.000000  0.000000  0.000000


  132646.984491  112728.569577  0.000000
  112728.569577  76264.696143  0.000000
  0.000000  0.000000  0.000000


  569093.603150  272116.339588  0.000000
  272116.339588  164526.555214  0.000000
  0.000000  0.000000  0.000000


  85171.479981  49196.119856  0.000000
  49196.119856  18142.293803  0.000000
  0.000000  0.000000  0.000000


  -652500.579516  -309182.269543  0.000000
  -309182.269543  -146445.870161  0.000000
  0.000000  0.000000  0.000000


  1136769.008930  -22879.825785  0.000000
  -22879.825785  92185.373417  0.000000
  0.000000  0.000000  0.000000


  -655595.133099  -310050.449493  0.000000
  -310050.449493  -136199.185673  0.000000
  0.000000  0.000000  0.000000


  -749604.125408  -234291.967715  0.000000
  -234291.967715  -62995.541238  0.000000
  0.000000  0.000000  0.000000


  34250.974952  -36857.194965  0.000000
  -36857.194965  -43919.759373  0.000000
  0.000000  0.000000  0.000000


  16051.639424  -50889.600601  0.000000
  -50889.600601  -25071.904086  0.000000
  0.000000  0.000000  0.000000


  -89505.356297  -20835.019846  0.000000
  -20835.019846  61525.732063  0.000000
  0.000000  0.000000  0.000000


  -512968.793317  18305.868583  0.000000
  18305.868583  50248.126809  0.000000
  0.000000  0.000000  0.000000


  45192.536863  -19804.724639  0.000000
  -19804.724639  -53695.594938  0.000000
  0.000000  0.000000  0.000000


  -97979.034290  -15890.445691  0.000000
  -15890.445691  61803.493363  0.000000
  0.000000  0.000000  0.000000


  -68407.382943  -34825.636845  0.000000
  -34825.636845  50255.791617  0.000000
  0.000000  0.000000  0.000000


  53609.216592  -13362.840053  0.000000
  -13362.840053  -51475.227686  0.000000
  0.000000  0.000000  0.000000


  3032.781615  -56090.453748  0.000000
  -56090.453748  -9594.823240  0.000000
  0.000000  0.000000  0.000000


  -36954.139368  -52293.207674  0.000000
  -52293.207674  27315.316878  0.000000
  0.000000  0.000000  0.000000


  -48385.928953  -46768.390950  0.000000
  -46768.390950  36900.590440  0.000000
  0.000000  0.000000  0.000000


  36485.358267  -33983.897705  0.000000
  -33983.897705  -46229.755629  0.000000
  0.000000  0.000000  0.000000


  -12209.019749  -57197.998748  0.000000
  -57197.998748  3656.262385  0.000000
  0.000000  0.000000  0.000000


  -74805.452822  -31180.302525  0.000000
  -31180.302525  53869.090302  0.000000
  0.000000  0.000000  0.000000


  -169076.994393  2440.608499  0.000000
  2440.608499  66343.045361  0.000000
  0.000000  0.000000  0.000000


  -23075.922378  -55857.747051  0.000000
  -55857.747051  13958.892014  0.000000
  0.000000  0.000000  0.000000


  32695.101723  -39648.010005  0.000000
  -39648.010005  -40572.246439  0.000000
  0.000000  0.000000  0.000000


  -713388.644048  -57367.616013  0.000000
  -57367.616013  40877.423781  0.000000
  0.000000  0.000000  0.000000


  -8015.769005  -57134.548518  0.000000
  -57134.548518  -807.810767  0.000000
  0.000000  0.000000  0.000000


  -107593.225609  -11071.007410  0.000000
  -11071.007410  65590.217119  0.000000
  0.000000  0.000000  0.000000


  41933.597083  -27377.974759  0.000000
  -27377.974759  -50323.589487  0.000000
  0.000000  0.000000  0.000000


  38931.417450  -31021.220213  0.000000
  -31021.220213  -49011.948583  0.000000
  0.000000  0.000000  0.000000


  59845.497707  -15146.132036  0.000000
  -15146.132036  -44241.506212  0.000000
  0.000000  0.000000  0.000000


  23430.699495  -46379.735865  0.000000
  -46379.735865  -34499.224275  0.000000
  0.000000  0.000000  0.000000


  6932.673974  -54881.041053  0.000000
  -54881.041053  -13917.694428  0.000000
  0.000000  0.000000  0.000000


  50573.596115  -15126.944857  0.000000
  -15126.944857  -53981.266186  0.000000
  0.000000  0.000000  0.000000


  47591.717062  -16989.969885  0.000000
  -16989.969885  -54060.231442  0.000000
  0.000000  0.000000  0.000000


  -27057.585562  -55163.351177  0.000000
  -55163.351177  19206.413226  0.000000
  0.000000  0.000000  0.000000


  -137994.823262  -740.629705  0.000000
  -740.629705  67690.579520  0.000000
  0.000000  0.000000  0.000000


  -32932.998032  -53740.650238  0.000000
  -53740.650238  22849.022961  0.000000
  0.000000  0.000000  0.000000


  -120173.964455  -5739.045308  0.000000
  -5739.045308  66960.440072  0.000000
  0.000000  0.000000  0.000000


  60549.015630  -14531.454656  0.000000
  -14531.454656  -34942.592420  0.000000
  0.000000  0.000000  0.000000


  61825.031554  -4786.807284  0.000000
  -4786.807284  -23693.364446  0.000000
  0.000000  0.000000  0.000000


  -749820.996129  -214905.571858  0.000000
  -214905.571858  -113534.748968  0.000000
  0.000000  0.000000  0.000000


  -686225.038084  -209940.485675  0.000000
  -209940.485675  -49894.640876  0.000000
  0.000000  0.000000  0.000000


  -737282.936286  -167156.044379  0.000000
  -167156.044379  -25466.819508  0.000000
  0.000000  0.000000  0.000000


  69185.546388  5356.409757  0.000000
  5356.409757  -14749.384658  0.000000
  0.000000  0.000000  0.000000


  74057.730553  13143.986892  0.000000
  13143.986892  -11356.200903  0.000000
  0.000000  0.000000  0.000000


  77106.834070  19715.768820  0.000000
  19715.768820  -7349.789613  0.000000
  0.000000  0.000000  0.000000


  -548292.913164  -251976.163587  0.000000
  -251976.163587  -104999.694327  0.000000
  0.000000  0.000000  0.000000


  -85457.678671  12122.317037  0.000000
  12122.317037  -6519.585956  0.000000
  0.000000  0.000000  0.000000


  -199789.509437  -42971.599587  0.000000
  -42971.599587  6522.802264  0.000000
  0.000000  0.000000  0.000000


  -321528.942199  -113804.420960  0.000000
  -113804.420960  -22037.646604  0.000000
  0.000000  0.000000  0.000000


  -438261.115911  -185528.259256  0.000000
  -185528.259256  -62491.904339  0.000000
  0.000000  0.000000  0.000000


  82965.015137  27885.025942  0.000000
  27885.025942  -4826.881747  0.000000
  0.000000  0.000000  0.000000


  -641892.903107  -198002.814346  0.000000
  -198002.814346  -27142.713411  0.000000
  0.000000  0.000000  0.000000


  -644654.710285  -141123.574542  0.000000
  -141123.574542  -48348.263112  0.000000
  0.000000  0.000000  0.000000


  -646234.622538  -146928.308768  0.000000
  -146928.308768  3894.453484  0.000000
  0.000000  0.000000  0.000000


  879736.479027  -39859.613591  0.000000
  -39859.613591  217869.749494  0.000000
  0.000000  0.000000  0.000000


  90686.119389  35327.761549  0.000000
  35327.761549  -294.603745  0.000000
  0.000000  0.000000  0.000000


  -567117.270168  -262327.463864  0.000000
  -262327.463864  -110440.467843  0.000000
  0.000000  0.000000  0.000000


  -659792.369753  -208826.433747  0.000000
  -208826.433747  -30623.184671  0.000000
  0.000000  0.000000  0.000000


  -579304.313704  -171415.829992  0.000000
  -171415.829992  4318.704821  0.000000
  0.000000  0.000000  0.000000


  107331.192818  55668.290514  0.000000
  55668.290514  8880.379340  0.000000
  0.000000  0.000000  0.000000


  207739.656818  102822.634077  0.000000
  102822.634077  36783.318922  0.000000
  0.000000  0.000000  0.000000


  653735.757042  175435.322383  0.000000
  175435.322383  74763.115331  0.000000
  0.000000  0.000000  0.000000


  99593.837256  44256.822809  0.000000
  44256.822809  3933.964603  0.000000
  0.000000  0.000000  0.000000


  670104.088540  -23417.698632  0.000000
  -23417.698632  -62766.545182  0.000000
  0.000000  0.000000  0.000000


  822898.721163  112693.387968  0.000000
  112693.387968  303442.544028  0.000000
  0.000000  0.000000  0.000000


  112787.706612  -9819.164975  0.000000
  -9819.164975  2484.738771  0.000000
  0.000000  0.000000  0.000000


  -4014.434228  -409236.916649  0.000000
  -409236.916649  -1338.131361  0.000000
  0.000000  0.000000  0.000000


  -85322.553355  -11344.196989  0.000000
  -11344.196989  -7760.132223  0.000000
  0.000000  0.000000  0.000000


  -218087.254310  59912.002258  0.000000
  59912.002258  1554.228116  0.000000
  0.000000  0.000000  0.000000


  1912986.948827  737210.063009  0.000000
  737210.063009  395224.596847  0.000000
  0.000000  0.000000  0.000000


  -1879602.055871  714845.242305  0.000000
  714845.242305  -377117.870745  0.000000
  0.000000  0.000000  0.000000


  719205.425057  317473.852754  0.000000
  317473.852754  134491.279659  0.000000
  0.000000  0.000000  0.000000


  1954824.964243  -406377.046860  0.000000
  -406377.046860  651601.805331  0.000000
  0.000000  0.000000  0.000000


  -1948876.028812  -426627.156677  0.000000
  -426627.156677  -649618.846684  0.000000
  0.000000  0.000000  0.000000


  -655152.450669  278522.713142  0.000000
  278522.713142  -113376.693091  0.000000
  0.000000  0.000000  0.000000


  404969.688935  144004.919520  0.000000
  144004.919520  31971.952782  0.000000
  0.000000  0.000000  0.000000


  5544583.144811  836758.465853  0.000000
  836758.465853  972883.443603  0.000000
  0.000000  0.000000  0.000000


  -775275.251103  -411224.379829  0.000000
  -411224.379829  -258422.499450  0.000000
  0.000000  0.000000  0.000000


  -1067243.888124  465284.528518  0.000000
  465284.528518  -220617.407098  0.000000
  0.000000  0.000000  0.000000


  1117987.845534  499646.695385  0.000000
  499646.695385  242518.169015  0.000000
  0.000000  0.000000  0.000000


  771481.648872  -400205.971835  0.000000
  -400205.971835  257157.978018  0.000000
  0.000000  0.000000  0.000000


  -5551244.455780  819718.697645  0.000000
  819718.697645  -961830.398082  0.000000
  0.000000  0.000000  0.000000


  -345307.938392  116424.432892  0.000000
  116424.432892  -27068.749694  0.000000
  0.000000  0.000000  0.000000


  252951.626737  57831.892243  0.000000
  57831.892243  -3760.411278  0.000000
  0.000000  0.000000  0.000000


  2881586.069761  887814.000706  0.000000
  887814.000706  543750.681764  0.000000
  0.000000  0.000000  0.000000


  -373543.789966  -411100.460307  0.000000
  -411100.460307  -124513.351509  0.000000
  0.000000  0.000000  0.000000


  -1380445.737547  578350.902427  0.000000
  578350.902427  -287438.678572  0.000000
  0.000000  0.000000  0.000000


  898279.163553  405119.939955  0.000000
  405119.939955  186981.860960  0.000000
  0.000000  0.000000  0.000000


  1257457.552488  -397807.603434  0.000000
  -397807.603434  419148.325971  0.000000
  0.000000  0.000000  0.000000


  -3180507.922270  -502309.690243  0.000000
  -502309.690243  -1060158.705730  0.000000
  0.000000  0.000000  0.000000


  -493269.169813  193923.570008  0.000000
  193923.570008  -68144.756119  0.000000
  0.000000  0.000000  0.000000


  558884.786771  231558.427358  0.000000
  231558.427358  82019.773815  0.000000
  0.000000  0.000000  0.000000


  3187134.701144  -477956.605231  0.000000
  -477956.605231  1062367.609932  0.000000
  0.000000  0.000000  0.000000


  -1261801.183687  -412815.689646  0.000000
  -412815.689646  -420596.188558  0.000000
  0.000000  0.000000  0.000000


  -839552.666835  366985.287974  0.000000
  366985.287974  -165043.755650  0.000000
  0.000000  0.000000  0.000000


  1421657.760006  608136.407357  0.000000
  608136.407357  307122.688685  0.000000
  0.000000  0.000000  0.000000


  367103.331600  -405151.213843  0.000000
  -405151.213843  122366.553522  0.000000
  0.000000  0.000000  0.000000


  -2860748.451434  864259.707899  0.000000
  864259.707899  -533109.094155  0.000000
  0.000000  0.000000  0.000000


  -204800.119883  45176.960669  0.000000
  45176.960669  4381.898261  0.000000
  0.000000  0.000000  0.000000


  -327377.916136  109752.826997  0.000000
  109752.826997  -20884.769101  0.000000
  0.000000  0.000000  0.000000


  -453304.718543  45595.561330  0.000000
  45595.561330  59463.553711  0.000000
  0.000000  0.000000  0.000000


  -2505249.981812  -94360.166590  0.000000
  -94360.166590  -652865.704499  0.000000
  0.000000  0.000000  0.000000


  -2252146.184410  -477772.893456  0.000000
  -477772.893456  -556031.543484  0.000000
  0.000000  0.000000  0.000000


  2515211.949876  -71803.804014  0.000000
  -71803.804014  666055.450778  0.000000
  0.000000  0.000000  0.000000


  2258498.701730  -456389.890485  0.000000
  -456389.890485  567979.720726  0.000000
  0.000000  0.000000  0.000000


  42485.591641  -37747.110373  0.000000
  -37747.110373  -41068.773125  0.000000
  0.000000  0.000000  0.000000


  39100.641510  -39934.770620  0.000000
  -39934.770620  -46516.203412  0.000000
  0.000000  0.000000  0.000000


  46592.486077  -40444.219632  0.000000
  -40444.219632  -44316.845179  0.000000
  0.000000  0.000000  0.000000


  43940.804792  -43712.307943  0.000000
  -43712.307943  -41435.684113  0.000000
  0.000000  0.000000  0.000000


  3403.041362  -57264.083189  0.000000
  -57264.083189  -13664.284268  0.000000
  0.000000  0.000000  0.000000


  5937.446146  -59369.486697  0.000000
  -59369.486697  -13159.850168  0.000000
  0.000000  0.000000  0.000000


  7396.727251  -60282.773613  0.000000
  -60282.773613  -17118.122115  0.000000
  0.000000  0.000000  0.000000


  3533.825092  -61662.946091  0.000000
  -61662.946091  -11403.799650  0.000000
  0.000000  0.000000  0.000000


  39097.725021  -40511.881008  0.000000
  -40511.881008  -38482.662294  0.000000
  0.000000  0.000000  0.000000


  34936.309402  -42911.809170  0.000000
  -42911.809170  -44571.604168  0.000000
  0.000000  0.000000  0.000000


  39466.998535  -45545.401144  0.000000
  -45545.401144  -37711.164178  0.000000
  0.000000  0.000000  0.000000


  34235.731633  -48780.072225  0.000000
  -48780.072225  -42955.067291  0.000000
  0.000000  0.000000  0.000000


  33314.152809  -43477.262695  0.000000
  -43477.262695  -38660.549066  0.000000
  0.000000  0.000000  0.000000


  8906.412293  -55830.438010  0.000000
  -55830.438010  -17614.851007  0.000000
  0.000000  0.000000  0.000000


  60028.253310  -20495.212536  0.000000
  -20495.212536  -49400.342482  0.000000
  0.000000  0.000000  0.000000


  55347.955012  -23725.999259  0.000000
  -23725.999259  -56066.566897  0.000000
  0.000000  0.000000  0.000000


  69631.147676  -25020.997195  0.000000
  -25020.997195  -51810.263518  0.000000
  0.000000  0.000000  0.000000


  64115.314073  -27155.093843  0.000000
  -27155.093843  -51405.223166  0.000000
  0.000000  0.000000  0.000000


  -11462.558958  -59190.566847  0.000000
  -59190.566847  -682.211036  0.000000
  0.000000  0.000000  0.000000


  -9264.624683  -61564.281534  0.000000
  -61564.281534  1344.141823  0.000000
  0.000000  0.000000  0.000000


  -9875.451000  -63129.271138  0.000000
  -63129.271138  -4614.295192  0.000000
  0.000000  0.000000  0.000000


  -14101.817507  -63368.535673  0.000000
  -63368.535673  1567.567523  0.000000
  0.000000  0.000000  0.000000


  51447.024533  -28013.361623  0.000000
  -28013.361623  -47067.438826  0.000000
  0.000000  0.000000  0.000000


  -150763.728817  -4067.193424  0.000000
  -4067.193424  61611.882271  0.000000
  0.000000  0.000000  0.000000


  -153148.780769  -18307.706963  0.000000
  -18307.706963  72914.685497  0.000000
  0.000000  0.000000  0.000000


  -151724.454545  -20610.635479  0.000000
  -20610.635479  71299.016925  0.000000
  0.000000  0.000000  0.000000


  -185606.563784  -15570.818370  0.000000
  -15570.818370  72619.978863  0.000000
  0.000000  0.000000  0.000000


  -103537.817728  -26208.428670  0.000000
  -26208.428670  52651.340695  0.000000
  0.000000  0.000000  0.000000


  -53820.741341  -51151.308331  0.000000
  -51151.308331  28457.580252  0.000000
  0.000000  0.000000  0.000000


  -6570.029219  -58794.851766  0.000000
  -58794.851766  -4934.706153  0.000000
  0.000000  0.000000  0.000000


  63041.483583  -17650.960525  0.000000
  -17650.960525  -50238.790555  0.000000
  0.000000  0.000000  0.000000


  59212.251813  -20641.183898  0.000000
  -20641.183898  -56147.931097  0.000000
  0.000000  0.000000  0.000000


  72355.676371  -22170.079366  0.000000
  -22170.079366  -51688.098479  0.000000
  0.000000  0.000000  0.000000


  65723.965062  -15398.270561  0.000000
  -15398.270561  -50755.952940  0.000000
  0.000000  0.000000  0.000000


  -78226.317191  -39530.527841  0.000000
  -39530.527841  41816.526919  0.000000
  0.000000  0.000000  0.000000


  -168736.134988  987.409384  0.000000
  987.409384  65299.575503  0.000000
  0.000000  0.000000  0.000000


  -166477.619079  -10175.046712  0.000000
  -10175.046712  82221.012272  0.000000
  0.000000  0.000000  0.000000


  -223924.006799  -7619.507425  0.000000
  -7619.507425  69654.118565  0.000000
  0.000000  0.000000  0.000000


  -225903.482182  -40042.610758  0.000000
  -40042.610758  83289.574822  0.000000
  0.000000  0.000000  0.000000


  -179209.441855  2660.593579  0.000000
  2660.593579  84337.137700  0.000000
  0.000000  0.000000  0.000000


  72878.729784  -10198.753667  0.000000
  -10198.753667  -35763.601781  0.000000
  0.000000  0.000000  0.000000


  69525.310085  -17508.767400  0.000000
  -17508.767400  -44275.947175  0.000000
  0.000000  0.000000  0.000000


  85496.068995  -12344.845618  0.000000
  -12344.845618  -35404.232846  0.000000
  0.000000  0.000000  0.000000


  77592.224020  -16423.045645  0.000000
  -16423.045645  -45239.322251  0.000000
  0.000000  0.000000  0.000000


  -136074.345526  -10005.653660  0.000000
  -10005.653660  59263.785405  0.000000
  0.000000  0.000000  0.000000


  -137603.632014  -24617.018562  0.000000
  -24617.018562  63618.395452  0.000000
  0.000000  0.000000  0.000000


  -121547.119390  -24417.288073  0.000000
  -24417.288073  68905.346270  0.000000
  0.000000  0.000000  0.000000


  -125875.944038  -16561.286317  0.000000
  -16561.286317  56034.013513  0.000000
  0.000000  0.000000  0.000000


  20652.453546  -51525.774491  0.000000
  -51525.774491  -25223.540512  0.000000
  0.000000  0.000000  0.000000


  -40594.034585  -55782.726936  0.000000
  -55782.726936  19698.396156  0.000000
  0.000000  0.000000  0.000000


  -35121.173792  -58727.671149  0.000000
  -58727.671149  25380.606037  0.000000
  0.000000  0.000000  0.000000


  -39465.380456  -62076.154311  0.000000
  -62076.154311  16592.282200  0.000000
  0.000000  0.000000  0.000000


  -44784.554801  -60212.628050  0.000000
  -60212.628050  22442.603032  0.000000
  0.000000  0.000000  0.000000


  -412960.591811  -41065.407755  0.000000
  -41065.407755  125192.763009  0.000000
  0.000000  0.000000  0.000000


  -522048.768563  -94586.802646  0.000000
  -94586.802646  62363.848512  0.000000
  0.000000  0.000000  0.000000


  -364174.282244  -85713.516621  0.000000
  -85713.516621  107099.534970  0.000000
  0.000000  0.000000  0.000000


  -415496.963548  -160726.837126  0.000000
  -160726.837126  59885.088061  0.000000
  0.000000  0.000000  0.000000


  -115863.358166  -20960.130992  0.000000
  -20960.130992  53834.932539  0.000000
  0.000000  0.000000  0.000000


  -109499.276392  -30160.269539  0.000000
  -30160.269539  67287.417873  0.000000
  0.000000  0.000000  0.000000


  -116042.063949  -34421.227067  0.000000
  -34421.227067  59813.613804  0.000000
  0.000000  0.000000  0.000000


  -135812.644889  -29860.978150  0.000000
  -29860.978150  61987.281859  0.000000
  0.000000  0.000000  0.000000


  -87085.506025  -36199.642040  0.000000
  -36199.642040  45050.374521  0.000000
  0.000000  0.000000  0.000000


  -78939.962679  -42402.486340  0.000000
  -42402.486340  53727.111035  0.000000
  0.000000  0.000000  0.000000


  -86454.025118  -46138.399670  0.000000
  -46138.399670  46315.973701  0.000000
  0.000000  0.000000  0.000000


  -97745.499023  -43430.480346  0.000000
  -43430.480346  47921.226005  0.000000
  0.000000  0.000000  0.000000


  48437.394458  -31760.026605  0.000000
  -31760.026605  -45764.981932  0.000000
  0.000000  0.000000  0.000000


  44740.209086  -34238.725885  0.000000
  -34238.725885  -50321.335803  0.000000
  0.000000  0.000000  0.000000


  45359.078804  -35651.240351  0.000000
  -35651.240351  -46759.655655  0.000000
  0.000000  0.000000  0.000000


  43551.496634  -34626.620054  0.000000
  -34626.620054  -43848.591440  0.000000
  0.000000  0.000000  0.000000


  -35548.259460  -57024.293414  0.000000
  -57024.293414  16141.176141  0.000000
  0.000000  0.000000  0.000000


  -29273.907065  -59767.360746  0.000000
  -59767.360746  20779.046849  0.000000
  0.000000  0.000000  0.000000


  -29476.804882  -59521.118315  0.000000
  -59521.118315  14800.227221  0.000000
  0.000000  0.000000  0.000000


  -28005.259039  -57229.181533  0.000000
  -57229.181533  13859.396238  0.000000
  0.000000  0.000000  0.000000


  -322829.250992  19184.622304  0.000000
  19184.622304  111762.819914  0.000000
  0.000000  0.000000  0.000000


  66840.537715  -11699.151477  0.000000
  -11699.151477  -47698.406567  0.000000
  0.000000  0.000000  0.000000


  69358.161237  -18761.035953  0.000000
  -18761.035953  -49013.694072  0.000000
  0.000000  0.000000  0.000000


  64103.486313  -16553.799284  0.000000
  -16553.799284  -51971.771355  0.000000
  0.000000  0.000000  0.000000


  -23719.300127  -58384.562424  0.000000
  -58384.562424  8289.347264  0.000000
  0.000000  0.000000  0.000000


  31569.283487  -47302.121284  0.000000
  -47302.121284  -32359.243579  0.000000
  0.000000  0.000000  0.000000


  -1055.686759  -57886.541078  0.000000
  -57886.541078  -8952.439833  0.000000
  0.000000  0.000000  0.000000


  55142.848304  -23938.797033  0.000000
  -23938.797033  -48730.723440  0.000000
  0.000000  0.000000  0.000000


  -17153.933029  -58738.601878  0.000000
  -58738.601878  4152.368722  0.000000
  0.000000  0.000000  0.000000


  -61197.942565  -48209.775581  0.000000
  -48209.775581  32369.186440  0.000000
  0.000000  0.000000  0.000000


  15740.931626  -53988.916860  0.000000
  -53988.916860  -21004.975324  0.000000
  0.000000  0.000000  0.000000


  -46154.686718  -53485.440302  0.000000
  -53485.440302  24542.389402  0.000000
  0.000000  0.000000  0.000000


  -525454.024433  -159610.447299  0.000000
  -159610.447299  19932.976161  0.000000
  0.000000  0.000000  0.000000


  -94186.562484  -31456.310791  0.000000
  -31456.310791  49652.177646  0.000000
  0.000000  0.000000  0.000000


  25395.011236  -49138.619700  0.000000
  -49138.619700  -28635.228918  0.000000
  0.000000  0.000000  0.000000


  76200.847747  -6070.850108  0.000000
  -6070.850108  -19438.939739  0.000000
  0.000000  0.000000  0.000000


  69446.468470  -11262.407474  0.000000
  -11262.407474  -33376.265339  0.000000
  0.000000  0.000000  0.000000


  78898.949492  -4739.231406  0.000000
  -4739.231406  -25475.164235  0.000000
  0.000000  0.000000  0.000000


  74709.212583  1554.373162  0.000000
  1554.373162  -11201.106594  0.000000
  0.000000  0.000000  0.000000


  -404422.135070  44074.859967  0.000000
  44074.859967  75843.060572  0.000000
  0.000000  0.000000  0.000000


  -519880.452203  84022.446549  0.000000
  84022.446549  68564.534140  0.000000
  0.000000  0.000000  0.000000


  82516.913063  10142.708525  0.000000
  10142.708525  -7791.506026  0.000000
  0.000000  0.000000  0.000000


  80855.661657  3538.762448  0.000000
  3538.762448  -26568.489742  0.000000
  0.000000  0.000000  0.000000


  99262.068863  10263.352750  0.000000
  10263.352750  -15533.665642  0.000000
  0.000000  0.000000  0.000000


  86177.995924  -399.653766  0.000000
  -399.653766  -22315.817131  0.000000
  0.000000  0.000000  0.000000


  -641292.831669  -144682.322206  0.000000
  -144682.322206  66555.926756  0.000000
  0.000000  0.000000  0.000000


  -572186.832292  -166219.538178  0.000000
  -166219.538178  8878.037631  0.000000
  0.000000  0.000000  0.000000


  -527275.283551  -137591.707052  0.000000
  -137591.707052  30391.011533  0.000000
  0.000000  0.000000  0.000000


  -489620.992860  -213896.693005  0.000000
  -213896.693005  -83368.260051  0.000000
  0.000000  0.000000  0.000000


  -591841.866547  -105629.281279  0.000000
  -105629.281279  94571.479569  0.000000
  0.000000  0.000000  0.000000


  -493539.337264  -108595.009595  0.000000
  -108595.009595  38198.818875  0.000000
  0.000000  0.000000  0.000000


  -461380.190453  -98340.211739  0.000000
  -98340.211739  51185.121103  0.000000
  0.000000  0.000000  0.000000


  -404927.306719  -159747.912970  0.000000
  -159747.912970  -49977.538005  0.000000
  0.000000  0.000000  0.000000


  -532299.803061  -60552.519260  0.000000
  -60552.519260  116798.063350  0.000000
  0.000000  0.000000  0.000000


  -410125.104477  -51600.981679  0.000000
  -51600.981679  62031.121638  0.000000
  0.000000  0.000000  0.000000


  -409379.236394  -54911.810422  0.000000
  -54911.810422  61457.619708  0.000000
  0.000000  0.000000  0.000000


  -465380.279319  -14080.510059  0.000000
  -14080.510059  116418.487478  0.000000
  0.000000  0.000000  0.000000


  -315292.808530  -106351.354109  0.000000
  -106351.354109  -19552.982683  0.000000
  0.000000  0.000000  0.000000


  -314363.419636  1263.033258  0.000000
  1263.033258  55191.185754  0.000000
  0.000000  0.000000  0.000000


  -562415.980514  -52121.310489  0.000000
  -52121.310489  107561.018357  0.000000
  0.000000  0.000000  0.000000


  -587772.720243  -36024.516896  0.000000
  -36024.516896  163714.625800  0.000000
  0.000000  0.000000  0.000000


  -332799.391960  -8300.636812  0.000000
  -8300.636812  49952.827330  0.000000
  0.000000  0.000000  0.000000


  -521765.956118  -12764.332208  0.000000
  -12764.332208  97806.620854  0.000000
  0.000000  0.000000  0.000000


  -557418.816858  13264.017828  0.000000
  13264.017828  141580.561915  0.000000
  0.000000  0.000000  0.000000


  -213135.094944  -57184.515401  0.000000
  -57184.515401  1298.782792  0.000000
  0.000000  0.000000  0.000000


  -661893.004146  -70196.127680  0.000000
  -70196.127680  144617.412338  0.000000
  0.000000  0.000000  0.000000


  -657723.306498  -30796.139929  0.000000
  -30796.139929  141594.824238  0.000000
  0.000000  0.000000  0.000000


  -655008.401506  -30853.807915  0.000000
  -30853.807915  191102.403096  0.000000
  0.000000  0.000000  0.000000


  -733586.180084  -66102.895954  0.000000
  -66102.895954  169148.459355  0.000000
  0.000000  0.000000  0.000000


  -742769.627492  -20597.390222  0.000000
  -20597.390222  163189.355096  0.000000
  0.000000  0.000000  0.000000


  -630700.577325  21733.493113  0.000000
  21733.493113  117032.833361  0.000000
  0.000000  0.000000  0.000000


  -657990.930099  39205.106774  0.000000
  39205.106774  141749.408937  0.000000
  0.000000  0.000000  0.000000


  -744040.074241  55616.450332  0.000000
  55616.450332  114169.882732  0.000000
  0.000000  0.000000  0.000000


  -748566.728818  58745.984613  0.000000
  58745.984613  143652.622833  0.000000
  0.000000  0.000000  0.000000


  -639078.912597  132545.873249  0.000000
  132545.873249  48028.362971  0.000000
  0.000000  0.000000  0.000000


  -721901.815172  156847.418824  0.000000
  156847.418824  23409.967121  0.000000
  0.000000  0.000000  0.000000


  -747489.792196  171832.287073  0.000000
  171832.287073  38744.025052  0.000000
  0.000000  0.000000  0.000000


  -576678.002518  240687.208119  0.000000
  240687.208119  -86044.939840  0.000000
  0.000000  0.000000  0.000000


  -575704.903380  98339.425611  0.000000
  98339.425611  50243.027972  0.000000
  0.000000  0.000000  0.000000


  -446272.764772  173070.541669  0.000000
  173070.541669  -51832.926820  0.000000
  0.000000  0.000000  0.000000


  -905753.071241  91756.352312  0.000000
  91756.352312  90840.586537  0.000000
  0.000000  0.000000  0.000000


  -863429.133137  67231.431223  0.000000
  67231.431223  151932.335786  0.000000
  0.000000  0.000000  0.000000


  -896538.479422  214154.360580  0.000000
  214154.360580  -7404.829440  0.000000
  0.000000  0.000000  0.000000


  -903219.691331  217053.125742  0.000000
  217053.125742  24442.919960  0.000000
  0.000000  0.000000  0.000000


  -721088.485016  315444.428215  0.000000
  315444.428215  -123958.502840  0.000000
  0.000000  0.000000  0.000000


  89122.531999  19166.917987  0.000000
  19166.917987  -3321.430649  0.000000
  0.000000  0.000000  0.000000


  84388.195339  12643.881310  0.000000
  12643.881310  -20923.467313  0.000000
  0.000000  0.000000  0.000000


  102202.778578  18744.595634  0.000000
  18744.595634  -10415.245963  0.000000
  0.000000  0.000000  0.000000


  87201.342853  25125.262596  0.000000
  25125.262596  -3841.294140  0.000000
  0.000000  0.000000  0.000000


  -1082881.360101  112795.239673  0.000000
  112795.239673  79846.083306  0.000000
  0.000000  0.000000  0.000000


  -1001589.187578  66260.011541  0.000000
  66260.011541  156056.550843  0.000000
  0.000000  0.000000  0.000000


  -1112516.293127  272155.845452  0.000000
  272155.845452  -38489.409490  0.000000
  0.000000  0.000000  0.000000


  -1084184.236024  255360.670946  0.000000
  255360.670946  19585.113872  0.000000
  0.000000  0.000000  0.000000


  -894864.617989  397809.992859  0.000000
  397809.992859  -161059.986795  0.000000
  0.000000  0.000000  0.000000


  -1309063.680757  120955.064692  0.000000
  120955.064692  55701.868770  0.000000
  0.000000  0.000000  0.000000


  -1398262.175253  322986.079995  0.000000
  322986.079995  -73049.979467  0.000000
  0.000000  0.000000  0.000000


  -1309104.660600  273171.043559  0.000000
  273171.043559  30192.727171  0.000000
  0.000000  0.000000  0.000000


  -1110530.205341  489141.713737  0.000000
  489141.713737  -194710.355711  0.000000
  0.000000  0.000000  0.000000


  -1593671.951987  103670.880816  0.000000
  103670.880816  26401.997816  0.000000
  0.000000  0.000000  0.000000


  -1800143.206207  351466.045211  0.000000
  351466.045211  -115371.780756  0.000000
  0.000000  0.000000  0.000000


  -1588565.003652  236474.380056  0.000000
  236474.380056  64463.124876  0.000000
  0.000000  0.000000  0.000000


  -1394801.043707  585479.494688  0.000000
  585479.494688  -211531.986988  0.000000
  0.000000  0.000000  0.000000


  -1932032.969434  34121.163831  0.000000
  34121.163831  -22380.491754  0.000000
  0.000000  0.000000  0.000000


  -2387401.761032  319331.693739  0.000000
  319331.693739  -177944.341993  0.000000
  0.000000  0.000000  0.000000


  -1898819.515878  60413.922782  0.000000
  60413.922782  109301.094762  0.000000
  0.000000  0.000000  0.000000


  -2243959.623995  -126180.534939  0.000000
  -126180.534939  -130793.953019  0.000000
  0.000000  0.000000  0.000000


  -3179892.095201  119158.183809  0.000000
  119158.183809  -321438.693771  0.000000
  0.000000  0.000000  0.000000


  -1791585.337279  663312.922924  0.000000
  663312.922924  -170570.260739  0.000000
  0.000000  0.000000  0.000000


  -1524664.787254  -192061.472013  0.000000
  -192061.472013  120268.777857  0.000000
  0.000000  0.000000  0.000000


  -1662451.114273  -270014.836144  0.000000
  -270014.836144  1906.757041  0.000000
  0.000000  0.000000  0.000000


  -1640787.042513  -454430.385403  0.000000
  -454430.385403  -209557.153697  0.000000
  0.000000  0.000000  0.000000


  -2373365.322502  584795.466255  0.000000
  584795.466255  104439.815152  0.000000
  0.000000  0.000000  0.000000


  -1245389.121458  -329842.381110  0.000000
  -329842.381110  150177.867140  0.000000
  0.000000  0.000000  0.000000


  -1254826.784639  -479000.547191  0.000000
  -479000.547191  -31556.252602  0.000000
  0.000000  0.000000  0.000000


  -1158963.499272  37019.077445  0.000000
  37019.077445  170728.098264  0.000000
  0.000000  0.000000  0.000000


  -1338618.220666  -68096.744075  0.000000
  -68096.744075  121367.078795  0.000000
  0.000000  0.000000  0.000000


  -647077.964390  -144629.382428  0.000000
  -144629.382428  50278.320116  0.000000
  0.000000  0.000000  0.000000


  45223.139374  -49827.837823  0.000000
  -49827.837823  -39117.834586  0.000000
  0.000000  0.000000  0.000000


  -782536.799042  -161184.228309  0.000000
  -161184.228309  -77233.825357  0.000000
  0.000000  0.000000  0.000000


  -213324.224634  -41379.781749  0.000000
  -41379.781749  83221.412499  0.000000
  0.000000  0.000000  0.000000


  1951327.952740  -276831.584979  0.000000
  -276831.584979  314278.577416  0.000000
  0.000000  0.000000  0.000000


  38507.365151  -51230.800060  0.000000
  -51230.800060  -34655.030094  0.000000
  0.000000  0.000000  0.000000


  -685914.763018  -169971.661953  0.000000
  -169971.661953  33778.763766  0.000000
  0.000000  0.000000  0.000000


  -640748.556698  -142392.099466  0.000000
  -142392.099466  48157.046688  0.000000
  0.000000  0.000000  0.000000


  -1953988.142588  -303572.926683  0.000000
  -303572.926683  -300425.089116  0.000000
  0.000000  0.000000  0.000000


  -1512041.677150  -537662.105253  0.000000
  -537662.105253  -471228.375410  0.000000
  0.000000  0.000000  0.000000


  -1259670.749638  -390108.394479  0.000000
  -390108.394479  -265214.241151  0.000000
  0.000000  0.000000  0.000000


  -1593028.428486  -215879.489487  0.000000
  -215879.489487  -498223.689233  0.000000
  0.000000  0.000000  0.000000


  -1173161.720533  -574921.330738  0.000000
  -574921.330738  -229930.343996  0.000000
  0.000000  0.000000  0.000000


  -1528940.851156  -389414.063690  0.000000
  -389414.063690  -109929.728847  0.000000
  0.000000  0.000000  0.000000


  -977261.766181  -466661.376618  0.000000
  -466661.376618  -103182.693289  0.000000
  0.000000  0.000000  0.000000


  -926918.531420  -600289.248750  0.000000
  -600289.248750  -67206.204736  0.000000
  0.000000  0.000000  0.000000


  -740140.323821  -602153.387975  0.000000
  -602153.387975  -169139.892965  0.000000
  0.000000  0.000000  0.000000


  -980378.780901  -536322.678508  0.000000
  -536322.678508  -323012.999095  0.000000
  0.000000  0.000000  0.000000


  -776321.348332  -412626.039834  0.000000
  -412626.039834  -176173.419470  0.000000
  0.000000  0.000000  0.000000


  -1017121.987619  -267684.786324  0.000000
  -267684.786324  -335260.612190  0.000000
  0.000000  0.000000  0.000000


  -263389.458246  -41196.322756  0.000000
  -41196.322756  89605.128294  0.000000
  0.000000  0.000000  0.000000


  -644208.919995  -135078.951846  0.000000
  -135078.951846  -16060.213509  0.000000
  0.000000  0.000000  0.000000


  3186757.916317  140204.369773  0.000000
  140204.369773  353159.891077  0.000000
  0.000000  0.000000  0.000000


  1918381.201134  72612.617332  0.000000
  72612.617332  -74078.349717  0.000000
  0.000000  0.000000  0.000000


  2384817.662189  603193.981111  0.000000
  603193.981111  -87308.167713  0.000000
  0.000000  0.000000  0.000000


  2216378.425269  -96682.494539  0.000000
  -96682.494539  137483.640183  0.000000
  0.000000  0.000000  0.000000


  2370204.425467  360167.041647  0.000000
  360167.041647  212058.716454  0.000000
  0.000000  0.000000  0.000000


  1580431.142048  250915.890953  0.000000
  250915.890953  -61731.718950  0.000000
  0.000000  0.000000  0.000000


  1815588.985880  680362.206632  0.000000
  680362.206632  182063.636431  0.000000
  0.000000  0.000000  0.000000


  1898084.419047  72570.299574  0.000000
  72570.299574  47581.879351  0.000000
  0.000000  0.000000  0.000000


  1804315.480926  393358.702547  0.000000
  393358.702547  150003.041694  0.000000
  0.000000  0.000000  0.000000


  1308782.507570  294492.202682  0.000000
  294492.202682  -26139.065924  0.000000
  0.000000  0.000000  0.000000


  1427862.976887  610693.647830  0.000000
  610693.647830  229620.418341  0.000000
  0.000000  0.000000  0.000000


  1570104.102291  147614.107272  0.000000
  147614.107272  5288.681137  0.000000
  0.000000  0.000000  0.000000


  1419343.243657  363596.166217  0.000000
  363596.166217  110127.879555  0.000000
  0.000000  0.000000  0.000000


  1095671.395047  284377.831601  0.000000
  284377.831601  -7150.676326  0.000000
  0.000000  0.000000  0.000000


  1151690.125956  518131.966998  0.000000
  518131.966998  214352.130294  0.000000
  0.000000  0.000000  0.000000


  1303361.574803  166994.065641  0.000000
  166994.065641  -25591.237410  0.000000
  0.000000  0.000000  0.000000


  1145607.415520  314213.703593  0.000000
  314213.703593  72504.304298  0.000000
  0.000000  0.000000  0.000000


  927265.288631  251412.688536  0.000000
  251412.688536  -7994.031974  0.000000
  0.000000  0.000000  0.000000


  944015.436846  430596.368137  0.000000
  430596.368137  182380.298800  0.000000
  0.000000  0.000000  0.000000


  1092747.327016  157320.078953  0.000000
  157320.078953  -50322.697813  0.000000
  0.000000  0.000000  0.000000


  940212.392829  256917.087810  0.000000
  256917.087810  35288.828747  0.000000
  0.000000  0.000000  0.000000


  791978.447965  211060.303040  0.000000
  211060.303040  -19856.837835  0.000000
  0.000000  0.000000  0.000000


  778149.487226  350495.450053  0.000000
  350495.450053  145245.119521  0.000000
  0.000000  0.000000  0.000000


  925902.433832  134513.911518  0.000000
  134513.911518  -76279.942309  0.000000
  0.000000  0.000000  0.000000


  776209.928951  197449.870536  0.000000
  197449.870536  -5062.478847  0.000000
  0.000000  0.000000  0.000000


  683412.220542  168175.401653  0.000000
  168175.401653  -39684.050430  0.000000
  0.000000  0.000000  0.000000


  639094.209469  276608.599439  0.000000
  276608.599439  106519.438302  0.000000
  0.000000  0.000000  0.000000


  792041.374671  105883.466781  0.000000
  105883.466781  -105956.009812  0.000000
  0.000000  0.000000  0.000000


  639348.346020  134659.140529  0.000000
  134659.140529  -43749.367538  0.000000
  0.000000  0.000000  0.000000


  590167.588549  122712.199607  0.000000
  122712.199607  -61626.417056  0.000000
  0.000000  0.000000  0.000000


  515557.573688  206133.171713  0.000000
  206133.171713  66787.571682  0.000000
  0.000000  0.000000  0.000000


  685041.406397  68144.183708  0.000000
  68144.183708  -128455.924550  0.000000
  0.000000  0.000000  0.000000


  518466.518685  68001.816294  0.000000
  68001.816294  -68106.977660  0.000000
  0.000000  0.000000  0.000000


  496538.287572  73794.908422  0.000000
  73794.908422  -74593.262336  0.000000
  0.000000  0.000000  0.000000


  396565.032444  138377.202125  0.000000
  138377.202125  28994.679541  0.000000
  0.000000  0.000000  0.000000


  593537.218733  17922.936689  0.000000
  17922.936689  -132976.833613  0.000000
  0.000000  0.000000  0.000000


  402583.672075  -951.164827  0.000000
  -951.164827  -55870.789436  0.000000
  0.000000  0.000000  0.000000


  377053.958035  17443.626380  0.000000
  17443.626380  -61863.640678  0.000000
  0.000000  0.000000  0.000000


  267947.775742  76776.822841  0.000000
  76776.822841  1829.002427  0.000000
  0.000000  0.000000  0.000000


  478870.598014  -41278.550053  0.000000
  -41278.550053  -111387.691323  0.000000
  0.000000  0.000000  0.000000


  267855.875172  -71247.571445  0.000000
  -71247.571445  -23989.741287  0.000000
  0.000000  0.000000  0.000000


  387788.516255  -55673.552311  0.000000
  -55673.552311  15054.410124  0.000000
  0.000000  0.000000  0.000000


  98089.177532  35565.986323  0.000000
  35565.986323  2138.811080  0.000000
  0.000000  0.000000  0.000000


  106288.239991  28411.338572  0.000000
  28411.338572  -15668.984639  0.000000
  0.000000  0.000000  0.000000


  127616.499010  37814.498520  0.000000
  37814.498520  -9171.086901  0.000000
  0.000000  0.000000  0.000000


  104345.892416  23704.281946  0.000000
  23704.281946  -16042.160005  0.000000
  0.000000  0.000000  0.000000


  80977.777662  -18577.978296  0.000000
  -18577.978296  -44737.951000  0.000000
  0.000000  0.000000  0.000000


  -648446.971078  -75446.159144  0.000000
  -75446.159144  199484.697231  0.000000
  0.000000  0.000000  0.000000


  -697970.323858  -100937.623866  0.000000
  -100937.623866  155914.521840  0.000000
  0.000000  0.000000  0.000000


  -639642.716187  -108278.374677  0.000000
  -108278.374677  177010.432675  0.000000
  0.000000  0.000000  0.000000


  -661501.516437  -122776.641501  0.000000
  -122776.641501  212043.202333  0.000000
  0.000000  0.000000  0.000000


  76623.438487  -22771.849946  0.000000
  -22771.849946  -49917.064090  0.000000
  0.000000  0.000000  0.000000


  -597300.987527  -79919.967631  0.000000
  -79919.967631  168367.178371  0.000000
  0.000000  0.000000  0.000000


  -660628.016901  -110334.923228  0.000000
  -110334.923228  111633.020899  0.000000
  0.000000  0.000000  0.000000


  -596169.839068  -97494.200638  0.000000
  -97494.200638  93247.220836  0.000000
  0.000000  0.000000  0.000000


  -594312.807766  -110967.638766  0.000000
  -110967.638766  106525.322404  0.000000
  0.000000  0.000000  0.000000


  -31112.183882  -65374.674765  0.000000
  -65374.674765  22141.040220  0.000000
  0.000000  0.000000  0.000000


  -1002739.902560  -7324.899676  0.000000
  -7324.899676  151368.022669  0.000000
  0.000000  0.000000  0.000000


  -552259.458951  -175428.355103  0.000000
  -175428.355103  14649.546621  0.000000
  0.000000  0.000000  0.000000


  -443382.945246  -241773.831385  0.000000
  -241773.831385  -50730.429251  0.000000
  0.000000  0.000000  0.000000


  -400281.828472  -219053.585881  0.000000
  -219053.585881  -7762.484415  0.000000
  0.000000  0.000000  0.000000


  -476036.374013  -221554.357379  0.000000
  -221554.357379  -66012.337028  0.000000
  0.000000  0.000000  0.000000


  -695334.765209  -89211.567960  0.000000
  -89211.567960  228295.207198  0.000000
  0.000000  0.000000  0.000000


  -21.342339  -60677.007317  0.000000
  -60677.007317  -8868.944546  0.000000
  0.000000  0.000000  0.000000


  -3862.027731  -62629.302933  0.000000
  -62629.302933  -7774.837439  0.000000
  0.000000  0.000000  0.000000


  -1145.811949  -64793.314950  0.000000
  -64793.314950  -6439.857980  0.000000
  0.000000  0.000000  0.000000


  -3623.667827  -61241.496946  0.000000
  -61241.496946  -2702.059128  0.000000
  0.000000  0.000000  0.000000


  1010.074745  -67574.933545  0.000000
  -67574.933545  -9049.662208  0.000000
  0.000000  0.000000  0.000000


  -5400.740891  -65834.597166  0.000000
  -65834.597166  -1407.958522  0.000000
  0.000000  0.000000  0.000000


  -41769.673124  -56392.980096  0.000000
  -56392.980096  30618.554544  0.000000
  0.000000  0.000000  0.000000


  -52378.407958  -57462.424968  0.000000
  -57462.424968  27146.861990  0.000000
  0.000000  0.000000  0.000000


  -79000.391571  -53176.979298  0.000000
  -53176.979298  52505.345392  0.000000
  0.000000  0.000000  0.000000


  45434.258700  -42385.481044  0.000000
  -42385.481044  -49806.386224  0.000000
  0.000000  0.000000  0.000000


  59415.862004  -31284.547004  0.000000
  -31284.547004  -56430.010844  0.000000
  0.000000  0.000000  0.000000


  -190749.355590  -41207.024913  0.000000
  -41207.024913  77799.168878  0.000000
  0.000000  0.000000  0.000000


  -113761.068209  -46440.328759  0.000000
  -46440.328759  64232.429840  0.000000
  0.000000  0.000000  0.000000


  11830.418125  -62680.854459  0.000000
  -62680.854459  -15672.280597  0.000000
  0.000000  0.000000  0.000000


  -12882.470815  -66240.336106  0.000000
  -66240.336106  3178.220726  0.000000
  0.000000  0.000000  0.000000


  -408433.071599  -105682.057672  0.000000
  -105682.057672  74808.285589  0.000000
  0.000000  0.000000  0.000000


  -86431.904087  -37936.895046  0.000000
  -37936.895046  56993.450560  0.000000
  0.000000  0.000000  0.000000


  -103829.850905  -37398.386168  0.000000
  -37398.386168  54377.280821  0.000000
  0.000000  0.000000  0.000000


  -114033.375520  -49441.458609  0.000000
  -49441.458609  58714.272182  0.000000
  0.000000  0.000000  0.000000


  -99267.149915  -34483.839467  0.000000
  -34483.839467  59726.765928  0.000000
  0.000000  0.000000  0.000000


  65604.118244  -28490.498814  0.000000
  -28490.498814  -56521.953217  0.000000
  0.000000  0.000000  0.000000


  -161651.565375  -41338.262792  0.000000
  -41338.262792  71565.310064  0.000000
  0.000000  0.000000  0.000000


  11591.887004  -58042.402310  0.000000
  -58042.402310  -17134.158613  0.000000
  0.000000  0.000000  0.000000


  12152.451887  -58225.290122  0.000000
  -58225.290122  -22103.206925  0.000000
  0.000000  0.000000  0.000000


  15858.715732  -56192.082160  0.000000
  -56192.082160  -22898.570415  0.000000
  0.000000  0.000000  0.000000


  19840.450318  -56809.711764  0.000000
  -56809.711764  -23244.574329  0.000000
  0.000000  0.000000  0.000000


  21462.334593  -53930.982721  0.000000
  -53930.982721  -26768.439177  0.000000
  0.000000  0.000000  0.000000


  16302.232097  -59331.559402  0.000000
  -59331.559402  -27093.705377  0.000000
  0.000000  0.000000  0.000000


  23776.802541  -53967.933937  0.000000
  -53967.933937  -28523.043903  0.000000
  0.000000  0.000000  0.000000


  18930.972762  -60416.063030  0.000000
  -60416.063030  -20243.994710  0.000000
  0.000000  0.000000  0.000000


  24523.432226  -59956.421639  0.000000
  -59956.421639  -25195.832894  0.000000
  0.000000  0.000000  0.000000


  24323.761381  -51688.428715  0.000000
  -51688.428715  -32802.752588  0.000000
  0.000000  0.000000  0.000000


  32137.613344  -52567.186381  0.000000
  -52567.186381  -31156.696446  0.000000
  0.000000  0.000000  0.000000


  25795.546537  -56102.249667  0.000000
  -56102.249667  -29971.529262  0.000000
  0.000000  0.000000  0.000000


  -439964.041849  -37366.827889  0.000000
  -37366.827889  65465.498552  0.000000
  0.000000  0.000000  0.000000


  -316116.335959  -30881.503829  0.000000
  -30881.503829  107260.521694  0.000000
  0.000000  0.000000  0.000000


  -87407.681925  -49282.762690  0.000000
  -49282.762690  57840.441346  0.000000
  0.000000  0.000000  0.000000


  39916.604041  -45881.428961  0.000000
  -45881.428961  -46208.078262  0.000000
  0.000000  0.000000  0.000000


  50956.990125  -26727.376519  0.000000
  -26727.376519  -54626.355948  0.000000
  0.000000  0.000000  0.000000


  59016.552328  -30821.049955  0.000000
  -30821.049955  -49503.643058  0.000000
  0.000000  0.000000  0.000000


  -39564.942625  -63094.525560  0.000000
  -63094.525560  27757.977313  0.000000
  0.000000  0.000000  0.000000


  -70815.287961  -45053.606830  0.000000
  -45053.606830  49745.475027  0.000000
  0.000000  0.000000  0.000000


  -76790.714927  -48543.872003  0.000000
  -48543.872003  41310.261170  0.000000
  0.000000  0.000000  0.000000


  -62023.623163  -48143.431798  0.000000
  -48143.431798  45100.195541  0.000000
  0.000000  0.000000  0.000000


  -69362.258706  -54562.114871  0.000000
  -54562.114871  47061.955858  0.000000
  0.000000  0.000000  0.000000


  -67475.779009  -52732.906971  0.000000
  -52732.906971  35931.332354  0.000000
  0.000000  0.000000  0.000000


  -15509.613067  -61502.406923  0.000000
  -61502.406923  6424.492916  0.000000
  0.000000  0.000000  0.000000


  -21401.762027  -62824.298329  0.000000
  -62824.298329  6027.692642  0.000000
  0.000000  0.000000  0.000000


  -439035.150742  -173623.862311  0.000000
  -173623.862311  39491.514821  0.000000
  0.000000  0.000000  0.000000


  -731944.222437  -27441.905552  0.000000
  -27441.905552  203774.695823  0.000000
  0.000000  0.000000  0.000000


  708714.604448  23584.958916  0.000000
  23584.958916  231003.089520  0.000000
  0.000000  0.000000  0.000000


  -46203.334493  -60587.939176  0.000000
  -60587.939176  33428.063796  0.000000
  0.000000  0.000000  0.000000


  54244.165304  -33752.666112  0.000000
  -33752.666112  -55265.213959  0.000000
  0.000000  0.000000  0.000000


  -18124.621435  -65750.496645  0.000000
  -65750.496645  9500.918245  0.000000
  0.000000  0.000000  0.000000


  110149.451724  46830.673327  0.000000
  46830.673327  8241.592817  0.000000
  0.000000  0.000000  0.000000


  111448.674268  39648.288193  0.000000
  39648.288193  -14367.525565  0.000000
  0.000000  0.000000  0.000000


  145302.640221  48330.909558  0.000000
  48330.909558  1108.451493  0.000000
  0.000000  0.000000  0.000000


  110681.410215  53925.708886  0.000000
  53925.708886  9069.228687  0.000000
  0.000000  0.000000  0.000000


  -48107.435560  -54315.801129  0.000000
  -54315.801129  35821.935085  0.000000
  0.000000  0.000000  0.000000


  -60480.613571  -55965.550461  0.000000
  -55965.550461  31265.032642  0.000000
  0.000000  0.000000  0.000000


  -54171.567056  -59499.309645  0.000000
  -59499.309645  37799.425090  0.000000
  0.000000  0.000000  0.000000


  47096.644109  -30486.252342  0.000000
  -30486.252342  -53298.169644  0.000000
  0.000000  0.000000  0.000000


  54412.981119  -34713.714824  0.000000
  -34713.714824  -47891.575516  0.000000
  0.000000  0.000000  0.000000


  -20791.416791  -60958.852586  0.000000
  -60958.852586  12378.498454  0.000000
  0.000000  0.000000  0.000000


  -27322.985177  -62146.224480  0.000000
  -62146.224480  11497.761095  0.000000
  0.000000  0.000000  0.000000


  131804.509095  72341.038344  0.000000
  72341.038344  18170.105362  0.000000
  0.000000  0.000000  0.000000


  547953.131290  18210.254318  0.000000
  18210.254318  -29793.285932  0.000000
  0.000000  0.000000  0.000000


  210203.136844  119418.254085  0.000000
  119418.254085  652.748215  0.000000
  0.000000  0.000000  0.000000


  -546870.093977  -525367.854146  0.000000
  -525367.854146  -181994.109883  0.000000
  0.000000  0.000000  0.000000


  -375075.428261  -416888.058011  0.000000
  -416888.058011  -83352.634618  0.000000
  0.000000  0.000000  0.000000


  -574299.234960  -291982.729212  0.000000
  -291982.729212  -191137.065447  0.000000
  0.000000  0.000000  0.000000


  -344486.218623  -604523.218631  0.000000
  -604523.218631  -81579.127919  0.000000
  0.000000  0.000000  0.000000


  -164755.969238  -517371.766065  0.000000
  -517371.766065  -50495.126700  0.000000
  0.000000  0.000000  0.000000


  -4797.799310  -414465.631419  0.000000
  -414465.631419  13139.192625  0.000000
  0.000000  0.000000  0.000000


  -187130.009232  -300536.652123  0.000000
  -300536.652123  -57953.065452  0.000000
  0.000000  0.000000  0.000000


  19568.137512  -601168.949206  0.000000
  -601168.949206  16099.919909  0.000000
  0.000000  0.000000  0.000000


  203199.402604  -513594.755530  0.000000
  -513594.755530  77429.066519  0.000000
  0.000000  0.000000  0.000000


  366723.835650  -406462.489163  0.000000
  -406462.489163  110313.055049  0.000000
  0.000000  0.000000  0.000000


  185180.631852  -297096.388362  0.000000
  -297096.388362  71422.869665  0.000000
  0.000000  0.000000  0.000000


  385808.925814  -596378.150826  0.000000
  -596378.150826  113563.354368  0.000000
  0.000000  0.000000  0.000000


  590559.473318  -514158.715804  0.000000
  -514158.715804  208588.348714  0.000000
  0.000000  0.000000  0.000000


  771300.843130  -393224.033423  0.000000
  -393224.033423  199999.454428  0.000000
  0.000000  0.000000  0.000000


  573704.259474  -282707.380799  0.000000
  -282707.380799  202970.000284  0.000000
  0.000000  0.000000  0.000000


  784235.656128  -586658.684428  0.000000
  -586658.684428  202433.110130  0.000000
  0.000000  0.000000  0.000000


  1029868.795770  -519976.018374  0.000000
  -519976.018374  348978.219982  0.000000
  0.000000  0.000000  0.000000


  1259034.599332  -362569.274369  0.000000
  -362569.274369  261482.151813  0.000000
  0.000000  0.000000  0.000000


  1168621.733533  -552416.700000  0.000000
  -552416.700000  268149.340181  0.000000
  0.000000  0.000000  0.000000


  1016604.094356  -254834.713602  0.000000
  -254834.713602  344556.697060  0.000000
  0.000000  0.000000  0.000000


  1515341.856777  -516714.096380  0.000000
  -516714.096380  484771.017587  0.000000
  0.000000  0.000000  0.000000


  1017613.333913  -445060.912499  0.000000
  -445060.912499  124546.069409  0.000000
  0.000000  0.000000  0.000000


  896059.810879  -584237.901539  0.000000
  -584237.901539  95933.824981  0.000000
  0.000000  0.000000  0.000000


  1512408.952093  -364201.947683  0.000000
  -364201.947683  128516.020656  0.000000
  0.000000  0.000000  0.000000


  1598514.647374  -195207.775177  0.000000
  -195207.775177  512495.003877  0.000000
  0.000000  0.000000  0.000000


  785306.452832  -504579.031592  0.000000
  -504579.031592  47189.550259  0.000000
  0.000000  0.000000  0.000000


  1163239.177985  -412913.031233  0.000000
  -412913.031233  30021.036806  0.000000
  0.000000  0.000000  0.000000


  507942.939815  -617691.237809  0.000000
  -617691.237809  75588.098892  0.000000
  0.000000  0.000000  0.000000


  391401.488905  -537225.479456  0.000000
  -537225.479456  45433.954162  0.000000
  0.000000  0.000000  0.000000


  589851.709022  -472775.851829  0.000000
  -472775.851829  104774.008243  0.000000
  0.000000  0.000000  0.000000


  154001.830739  -634584.199664  0.000000
  -634584.199664  30932.079609  0.000000
  0.000000  0.000000  0.000000


  21746.012849  -544989.267667  0.000000
  -544989.267667  32434.821736  0.000000
  0.000000  0.000000  0.000000


  305081.856264  -637555.375702  0.000000
  -637555.375702  21711.775882  0.000000
  0.000000  0.000000  0.000000


  203006.962919  -489882.824539  0.000000
  -489882.824539  50451.264254  0.000000
  0.000000  0.000000  0.000000


  -194627.940907  -639507.699491  0.000000
  -639507.699491  -19385.442421  0.000000
  0.000000  0.000000  0.000000


  -346258.853233  -539011.099524  0.000000
  -539011.099524  17747.683046  0.000000
  0.000000  0.000000  0.000000


  -17829.876937  -652505.579174  0.000000
  -652505.579174  17065.976763  0.000000
  0.000000  0.000000  0.000000


  -164684.152842  -495216.109670  0.000000
  -495216.109670  -4166.868566  0.000000
  0.000000  0.000000  0.000000


  -546605.026980  -632010.973665  0.000000
  -632010.973665  -59826.241540  0.000000
  0.000000  0.000000  0.000000


  -752608.214355  -508933.765809  0.000000
  -508933.765809  9740.030874  0.000000
  0.000000  0.000000  0.000000


  -344480.562897  -644385.818264  0.000000
  -644385.818264  12510.828183  0.000000
  0.000000  0.000000  0.000000


  -653500.429791  -600945.442779  0.000000
  -600945.442779  27645.291565  0.000000
  0.000000  0.000000  0.000000


  607149.939236  -586028.169175  0.000000
  -586028.169175  6460.522814  0.000000
  0.000000  0.000000  0.000000


  1252832.193767  -459120.038717  0.000000
  -459120.038717  51596.673524  0.000000
  0.000000  0.000000  0.000000


  1651210.537368  -231592.828501  0.000000
  -231592.828501  18316.032854  0.000000
  0.000000  0.000000  0.000000


  1195503.430183  -275661.411542  0.000000
  -275661.411542  -126024.313302  0.000000
  0.000000  0.000000  0.000000


  1512607.768654  -152791.841028  0.000000
  -152791.841028  -99194.212808  0.000000
  0.000000  0.000000  0.000000


  -193848.830176  -548780.947851  0.000000
  -548780.947851  31821.149206  0.000000
  0.000000  0.000000  0.000000


  -167117.116404  -632791.007662  0.000000
  -632791.007662  37561.636986  0.000000
  0.000000  0.000000  0.000000


  -342363.083815  -529925.763160  0.000000
  -529925.763160  63631.228121  0.000000
  0.000000  0.000000  0.000000


  -22994.197842  -540698.642860  0.000000
  -540698.642860  26543.487303  0.000000
  0.000000  0.000000  0.000000


  969402.616186  -489390.645628  0.000000
  -489390.645628  -38046.705735  0.000000
  0.000000  0.000000  0.000000


  -548931.709660  -528703.720485  0.000000
  -528703.720485  49974.967606  0.000000
  0.000000  0.000000  0.000000


  -471544.435184  -602348.690792  0.000000
  -602348.690792  67676.524175  0.000000
  0.000000  0.000000  0.000000


  -658921.830385  -479554.241257  0.000000
  -479554.241257  98545.396358  0.000000
  0.000000  0.000000  0.000000


  -772673.807365  -531313.305692  0.000000
  -531313.305692  119813.271339  0.000000
  0.000000  0.000000  0.000000


  -558681.968745  -521497.078973  0.000000
  -521497.078973  132824.099748  0.000000
  0.000000  0.000000  0.000000


  157591.227791  -544576.864386  0.000000
  -544576.864386  17021.577306  0.000000
  0.000000  0.000000  0.000000


  146695.085626  -627959.934187  0.000000
  -627959.934187  14634.709865  0.000000
  0.000000  0.000000  0.000000


  296932.800900  -521498.140921  0.000000
  -521498.140921  -15571.347455  0.000000
  0.000000  0.000000  0.000000


  277053.905557  -567070.440647  0.000000
  -567070.440647  -26494.571250  0.000000
  0.000000  0.000000  0.000000


  453031.947677  -590564.361461  0.000000
  -590564.361461  -14419.977002  0.000000
  0.000000  0.000000  0.000000


  621133.725939  -463968.495432  0.000000
  -463968.495432  -52438.589043  0.000000
  0.000000  0.000000  0.000000


  515042.466588  -518814.608063  0.000000
  -518814.608063  -3487.538740  0.000000
  0.000000  0.000000  0.000000


  533567.955307  -504821.917909  0.000000
  -504821.917909  -82549.915282  0.000000
  0.000000  0.000000  0.000000


  715607.546897  -494878.826023  0.000000
  -494878.826023  -76397.497041  0.000000
  0.000000  0.000000  0.000000


  984945.963676  -363886.925205  0.000000
  -363886.925205  -77502.284804  0.000000
  0.000000  0.000000  0.000000


  448836.475894  -454389.798413  0.000000
  -454389.798413  -39079.316844  0.000000
  0.000000  0.000000  0.000000


  359629.761300  -486888.742465  0.000000
  -486888.742465  -70701.602120  0.000000
  0.000000  0.000000  0.000000


  718309.379012  -388149.132477  0.000000
  -388149.132477  -154616.973095  0.000000
  0.000000  0.000000  0.000000


  967040.533748  -353359.327254  0.000000
  -353359.327254  -142634.649202  0.000000
  0.000000  0.000000  0.000000


  1201544.996788  -203690.086954  0.000000
  -203690.086954  -97464.499816  0.000000
  0.000000  0.000000  0.000000


  1256587.506958  -313081.913229  0.000000
  -313081.913229  -48139.722547  0.000000
  0.000000  0.000000  0.000000


  909044.996291  -240827.173053  0.000000
  -240827.173053  -195466.159143  0.000000
  0.000000  0.000000  0.000000


  1100593.760721  -150644.096091  0.000000
  -150644.096091  -179994.829269  0.000000
  0.000000  0.000000  0.000000


  1335090.061244  -18986.183923  0.000000
  -18986.183923  -82688.535024  0.000000
  0.000000  0.000000  0.000000


  1000229.260600  -62858.162791  0.000000
  -62858.162791  -189768.326545  0.000000
  0.000000  0.000000  0.000000


  1156076.149003  82307.078785  0.000000
  82307.078785  -135789.732708  0.000000
  0.000000  0.000000  0.000000


  727898.722327  -384314.096202  0.000000
  -384314.096202  -76471.433689  0.000000
  0.000000  0.000000  0.000000


  543587.565131  -412881.068053  0.000000
  -412881.068053  -132952.419300  0.000000
  0.000000  0.000000  0.000000


  518993.108121  -382565.874324  0.000000
  -382565.874324  -64415.931102  0.000000
  0.000000  0.000000  0.000000


  387927.165696  -407563.429751  0.000000
  -407563.429751  -107055.054310  0.000000
  0.000000  0.000000  0.000000


  356107.245627  -375784.337763  0.000000
  -375784.337763  -30103.869205  0.000000
  0.000000  0.000000  0.000000


  535370.463036  -306908.665281  0.000000
  -306908.665281  -86528.485718  0.000000
  0.000000  0.000000  0.000000


  727650.973149  -303532.147785  0.000000
  -303532.147785  -105502.027959  0.000000
  0.000000  0.000000  0.000000


  269136.173430  -434672.862177  0.000000
  -434672.862177  -16981.810059  0.000000
  0.000000  0.000000  0.000000


  171652.323152  -455057.564764  0.000000
  -455057.564764  -49773.371916  0.000000
  0.000000  0.000000  0.000000


  111676.603604  -412314.660946  0.000000
  -412314.660946  18826.180300  0.000000
  0.000000  0.000000  0.000000


  -50039.788147  -482947.302673  0.000000
  -482947.302673  24692.047662  0.000000
  0.000000  0.000000  0.000000


  53191.655645  -422040.555922  0.000000
  -422040.555922  -726.908939  0.000000
  0.000000  0.000000  0.000000


  222623.854261  -383126.671510  0.000000
  -383126.671510  -72446.619737  0.000000
  0.000000  0.000000  0.000000


  428306.172277  -318072.909251  0.000000
  -318072.909251  -123355.078126  0.000000
  0.000000  0.000000  0.000000


  571015.118296  -317802.188234  0.000000
  -317802.188234  -157525.903537  0.000000
  0.000000  0.000000  0.000000


  724692.490408  -220581.461094  0.000000
  -220581.461094  -120824.915134  0.000000
  0.000000  0.000000  0.000000


  578431.586255  -233575.954939  0.000000
  -233575.954939  -169574.525053  0.000000
  0.000000  0.000000  0.000000


  728359.614026  -217057.323385  0.000000
  -217057.323385  -195165.824408  0.000000
  0.000000  0.000000  0.000000


  971216.036955  -276761.446149  0.000000
  -276761.446149  -105333.535382  0.000000
  0.000000  0.000000  0.000000


  715692.804432  -295010.849074  0.000000
  -295010.849074  -186851.638201  0.000000
  0.000000  0.000000  0.000000


  926826.518746  -198320.340760  0.000000
  -198320.340760  -126099.257205  0.000000
  0.000000  0.000000  0.000000


  845502.625899  -152491.913982  0.000000
  -152491.913982  -213868.128053  0.000000
  0.000000  0.000000  0.000000


  1008673.762101  -78075.194359  0.000000
  -78075.194359  -142506.564870  0.000000
  0.000000  0.000000  0.000000


  1101060.378666  -126533.336493  0.000000
  -126533.336493  -129784.675026  0.000000
  0.000000  0.000000  0.000000


  807012.338840  -91647.174974  0.000000
  -91647.174974  -196621.061819  0.000000
  0.000000  0.000000  0.000000


  906683.559099  -11191.136917  0.000000
  -11191.136917  -185362.638159  0.000000
  0.000000  0.000000  0.000000


  855928.584082  -131586.045711  0.000000
  -131586.045711  -145687.833070  0.000000
  0.000000  0.000000  0.000000


  677384.713890  -149094.494536  0.000000
  -149094.494536  -201602.956739  0.000000
  0.000000  0.000000  0.000000


  705081.161143  -159061.895007  0.000000
  -159061.895007  -117834.748213  0.000000
  0.000000  0.000000  0.000000


  553582.708050  -173830.134685  0.000000
  -173830.134685  -167153.867794  0.000000
  0.000000  0.000000  0.000000


  786479.778914  -79908.180562  0.000000
  -79908.180562  -138951.421597  0.000000
  0.000000  0.000000  0.000000


  568372.144782  -175180.832264  0.000000
  -175180.832264  -80819.252142  0.000000
  0.000000  0.000000  0.000000


  668005.707506  -99546.710007  0.000000
  -99546.710007  -105803.468526  0.000000
  0.000000  0.000000  0.000000


  657803.191205  -89233.348401  0.000000
  -89233.348401  -182360.900444  0.000000
  0.000000  0.000000  0.000000


  753379.329314  -28128.585560  0.000000
  -28128.585560  -125396.794135  0.000000
  0.000000  0.000000  0.000000


  755769.624452  -61237.550867  0.000000
  -61237.550867  -200556.499902  0.000000
  0.000000  0.000000  0.000000


  643915.494996  -36177.989004  0.000000
  -36177.989004  -162392.869496  0.000000
  0.000000  0.000000  0.000000


  728238.052566  -11703.698616  0.000000
  -11703.698616  -190156.557999  0.000000
  0.000000  0.000000  0.000000


  421004.832846  -240496.319136  0.000000
  -240496.319136  -139683.432975  0.000000
  0.000000  0.000000  0.000000


  437984.870773  -243756.879246  0.000000
  -243756.879246  -48400.943096  0.000000
  0.000000  0.000000  0.000000


  568106.661036  -226753.965428  0.000000
  -226753.965428  -89897.497134  0.000000
  0.000000  0.000000  0.000000


  273063.904560  -307379.637259  0.000000
  -307379.637259  -90939.136552  0.000000
  0.000000  0.000000  0.000000


  231299.094056  -288334.729041  0.000000
  -288334.729041  -21009.316754  0.000000
  0.000000  0.000000  0.000000


  305137.666761  -254897.273286  0.000000
  -254897.273286  -91772.518948  0.000000
  0.000000  0.000000  0.000000


  107309.033980  -357798.549206  0.000000
  -357798.549206  -28370.320677  0.000000
  0.000000  0.000000  0.000000


  179559.768445  -346117.304500  0.000000
  -346117.304500  -5521.701536  0.000000
  0.000000  0.000000  0.000000


  180357.360469  -299063.731594  0.000000
  -299063.731594  -40125.991060  0.000000
  0.000000  0.000000  0.000000


  57399.955385  -317368.855674  0.000000
  -317368.855674  25403.959850  0.000000
  0.000000  0.000000  0.000000


  420740.412887  -187080.049475  0.000000
  -187080.049475  -125938.622673  0.000000
  0.000000  0.000000  0.000000


  545986.722729  -111960.376598  0.000000
  -111960.376598  -147572.322558  0.000000
  0.000000  0.000000  0.000000


  272111.438478  -230152.315683  0.000000
  -230152.315683  -24301.295886  0.000000
  0.000000  0.000000  0.000000


  209668.400044  -251542.295630  0.000000
  -251542.295630  -46756.656823  0.000000
  0.000000  0.000000  0.000000


  173763.133941  -227685.452385  0.000000
  -227685.452385  -3798.407945  0.000000
  0.000000  0.000000  0.000000


  294324.747344  -190352.767985  0.000000
  -190352.767985  -23378.381339  0.000000
  0.000000  0.000000  0.000000


  428861.761692  -185230.139828  0.000000
  -185230.139828  -48693.864628  0.000000
  0.000000  0.000000  0.000000


  334840.778206  -202460.099778  0.000000
  -202460.099778  -76935.040133  0.000000
  0.000000  0.000000  0.000000


  427251.323634  -135588.851505  0.000000
  -135588.851505  -30291.213914  0.000000
  0.000000  0.000000  0.000000


  346490.149934  -158186.729031  0.000000
  -158186.729031  -58414.226517  0.000000
  0.000000  0.000000  0.000000


  444476.518271  -129215.616417  0.000000
  -129215.616417  -100052.035997  0.000000
  0.000000  0.000000  0.000000


  559029.676081  -71388.895627  0.000000
  -71388.895627  -35144.850420  0.000000
  0.000000  0.000000  0.000000


  335842.926381  -152206.761635  0.000000
  -152206.761635  -1402.656007  0.000000
  0.000000  0.000000  0.000000


  441328.101956  -99461.029200  0.000000
  -99461.029200  5483.320297  0.000000
  0.000000  0.000000  0.000000


  439874.274272  -95824.764142  0.000000
  -95824.764142  -63002.658049  0.000000
  0.000000  0.000000  0.000000


  541869.916971  -38025.259632  0.000000
  -38025.259632  24437.098073  0.000000
  0.000000  0.000000  0.000000


  430776.423845  -77337.381662  0.000000
  -77337.381662  -1501.023541  0.000000
  0.000000  0.000000  0.000000


  533677.713085  -28353.395273  0.000000
  -28353.395273  -62231.134399  0.000000
  0.000000  0.000000  0.000000


  538113.863169  -59605.932296  0.000000
  -59605.932296  -112259.853521  0.000000
  0.000000  0.000000  0.000000


  655004.521878  -44076.715879  0.000000
  -44076.715879  -72064.816877  0.000000
  0.000000  0.000000  0.000000


  446236.541395  -84015.071665  0.000000
  -84015.071665  45017.355725  0.000000
  0.000000  0.000000  0.000000


  531617.912881  -23467.757616  0.000000
  -23467.757616  97086.474776  0.000000
  0.000000  0.000000  0.000000


  633123.160225  31985.918056  0.000000
  31985.918056  55589.482184  0.000000
  0.000000  0.000000  0.000000


  640193.018067  -642.841298  0.000000
  -642.841298  -20950.485904  0.000000
  0.000000  0.000000  0.000000


  635188.831997  5087.942390  0.000000
  5087.942390  -125393.227447  0.000000
  0.000000  0.000000  0.000000


  716143.587661  51603.067209  0.000000
  51603.067209  -35503.924567  0.000000
  0.000000  0.000000  0.000000


  724873.014118  12964.589290  0.000000
  12964.589290  -94467.412241  0.000000
  0.000000  0.000000  0.000000


  716873.118887  19628.133401  0.000000
  19628.133401  -167354.392430  0.000000
  0.000000  0.000000  0.000000


  739097.190696  32431.677331  0.000000
  32431.677331  -128155.911704  0.000000
  0.000000  0.000000  0.000000


  781111.592886  22525.833310  0.000000
  22525.833310  -145694.763696  0.000000
  0.000000  0.000000  0.000000


  917801.540287  -44648.271347  0.000000
  -44648.271347  -143988.270900  0.000000
  0.000000  0.000000  0.000000


  823379.546720  14755.836235  0.000000
  14755.836235  -189305.918693  0.000000
  0.000000  0.000000  0.000000


  -74916.684423  -375214.403579  0.000000
  -375214.403579  33832.739889  0.000000
  0.000000  0.000000  0.000000


  -6322.055610  -326986.937470  0.000000
  -326986.937470  5981.337209  0.000000
  0.000000  0.000000  0.000000


  1511825.646381  -110094.475220  0.000000
  -110094.475220  -43489.921250  0.000000
  0.000000  0.000000  0.000000


  1316099.634700  504.937917  0.000000
  504.937917  -149871.916514  0.000000
  0.000000  0.000000  0.000000


  70143.718421  -280800.519021  0.000000
  -280800.519021  -10472.173115  0.000000
  0.000000  0.000000  0.000000


  114819.147869  -245222.176944  0.000000
  -245222.176944  -22697.893784  0.000000
  0.000000  0.000000  0.000000


  237650.260775  -208633.293320  0.000000
  -208633.293320  -45652.567534  0.000000
  0.000000  0.000000  0.000000


  206733.471298  -193736.850353  0.000000
  -193736.850353  -73.168444  0.000000
  0.000000  0.000000  0.000000


  327679.300490  124113.157523  0.000000
  124113.157523  -39110.971365  0.000000
  0.000000  0.000000  0.000000


  158355.524956  94035.209879  0.000000
  94035.209879  17233.577381  0.000000
  0.000000  0.000000  0.000000


  97223.958974  2887.297245  0.000000
  2887.297245  -32995.782089  0.000000
  0.000000  0.000000  0.000000


  686224.498433  69817.023483  0.000000
  69817.023483  -128006.266094  0.000000
  0.000000  0.000000  0.000000


  731371.019820  43821.827543  0.000000
  43821.827543  -144480.643502  0.000000
  0.000000  0.000000  0.000000


  741141.588816  43339.128845  0.000000
  43339.128845  -167468.091646  0.000000
  0.000000  0.000000  0.000000


  50639.120692  -47336.499035  0.000000
  -47336.499035  -42233.422503  0.000000
  0.000000  0.000000  0.000000


  688689.044221  23745.340736  0.000000
  23745.340736  -101083.289752  0.000000
  0.000000  0.000000  0.000000


  680633.606546  28894.579097  0.000000
  28894.579097  -121468.317111  0.000000
  0.000000  0.000000  0.000000


  722866.536674  41621.585119  0.000000
  41621.585119  -146285.532219  0.000000
  0.000000  0.000000  0.000000


  728230.485545  92339.637295  0.000000
  92339.637295  -127685.488593  0.000000
  0.000000  0.000000  0.000000


  806961.920044  47086.671762  0.000000
  47086.671762  -148099.731063  0.000000
  0.000000  0.000000  0.000000


  775449.823904  31717.200301  0.000000
  31717.200301  -177705.002612  0.000000
  0.000000  0.000000  0.000000


  844739.615235  -2549.174402  0.000000
  -2549.174402  -150006.378149  0.000000
  0.000000  0.000000  0.000000


  402326.852890  -91380.189127  0.000000
  -91380.189127  -82780.437028  0.000000
  0.000000  0.000000  0.000000


  781724.620626  -131591.500989  0.000000
  -131591.500989  52015.591463  0.000000
  0.000000  0.000000  0.000000


  141483.840308  24715.122181  0.000000
  24715.122181  -25176.356514  0.000000
  0.000000  0.000000  0.000000


  -1522727.104828  -132482.796270  0.000000
  -132482.796270  81996.064391  0.000000
  0.000000  0.000000  0.000000


  -1122117.146143  -189113.374597  0.000000
  -189113.374597  222197.415213  0.000000
  0.000000  0.000000  0.000000


  -1234191.084984  -261481.245304  0.000000
  -261481.245304  129819.684322  0.000000
  0.000000  0.000000  0.000000


  -1351331.798981  -31618.754855  0.000000
  -31618.754855  171325.266448  0.000000
  0.000000  0.000000  0.000000


  -928980.866192  -293309.789558  0.000000
  -293309.789558  229392.996231  0.000000
  0.000000  0.000000  0.000000


  -962706.754643  -379588.770744  0.000000
  -379588.770744  180584.480655  0.000000
  0.000000  0.000000  0.000000


  -978524.621798  -387348.456475  0.000000
  -387348.456475  126646.549268  0.000000
  0.000000  0.000000  0.000000


  -793924.613362  -432904.235537  0.000000
  -432904.235537  194773.719166  0.000000
  0.000000  0.000000  0.000000


  -953231.610630  -306653.063917  0.000000
  -306653.063917  168866.563409  0.000000
  0.000000  0.000000  0.000000


  -767549.558760  -338486.365038  0.000000
  -338486.365038  232002.531923  0.000000
  0.000000  0.000000  0.000000


  -748335.048596  -406868.555070  0.000000
  -406868.555070  139415.191318  0.000000
  0.000000  0.000000  0.000000


  -914756.373732  -234556.107821  0.000000
  -234556.107821  186229.014178  0.000000
  0.000000  0.000000  0.000000


  -776459.304265  -340788.860516  0.000000
  -340788.860516  162808.970915  0.000000
  0.000000  0.000000  0.000000


  -586180.950236  -433540.766889  0.000000
  -433540.766889  195590.370597  0.000000
  0.000000  0.000000  0.000000


  -561566.502580  -414992.383286  0.000000
  -414992.383286  123321.902710  0.000000
  0.000000  0.000000  0.000000


  -447816.001741  -428490.599739  0.000000
  -428490.599739  161549.686329  0.000000
  0.000000  0.000000  0.000000


  -368609.031112  -503288.433639  0.000000
  -503288.433639  131608.390347  0.000000
  0.000000  0.000000  0.000000


  -882650.268028  -214297.461007  0.000000
  -214297.461007  253745.203469  0.000000
  0.000000  0.000000  0.000000


  -748583.309519  -257395.897481  0.000000
  -257395.897481  245013.766846  0.000000
  0.000000  0.000000  0.000000


  -605487.198575  -355440.424393  0.000000
  -355440.424393  218193.325983  0.000000
  0.000000  0.000000  0.000000


  -1271366.400017  -346239.860510  0.000000
  -346239.860510  83539.399165  0.000000
  0.000000  0.000000  0.000000


  -969101.830727  -511332.003050  0.000000
  -511332.003050  77653.129202  0.000000
  0.000000  0.000000  0.000000


  -906444.880302  -476891.690439  0.000000
  -476891.690439  64318.264721  0.000000
  0.000000  0.000000  0.000000


  -1170659.884381  -427546.921630  0.000000
  -427546.921630  5990.470857  0.000000
  0.000000  0.000000  0.000000


  -31278.593173  -371567.038836  0.000000
  -371567.038836  47098.670162  0.000000
  0.000000  0.000000  0.000000


  -154015.453620  -430812.450324  0.000000
  -430812.450324  65571.879635  0.000000
  0.000000  0.000000  0.000000


  -134477.649743  -417101.970158  0.000000
  -417101.970158  68593.027950  0.000000
  0.000000  0.000000  0.000000


  -256331.694970  -367496.455442  0.000000
  -367496.455442  90046.272793  0.000000
  0.000000  0.000000  0.000000


  -254744.605155  -470981.279511  0.000000
  -470981.279511  95437.766520  0.000000
  0.000000  0.000000  0.000000


  -387990.291811  -393666.636913  0.000000
  -393666.636913  115284.716640  0.000000
  0.000000  0.000000  0.000000


  -330518.719466  -405725.838370  0.000000
  -405725.838370  128283.090141  0.000000
  0.000000  0.000000  0.000000


  -446042.832874  -334471.529568  0.000000
  -334471.529568  135726.562121  0.000000
  0.000000  0.000000  0.000000


  -503579.326208  -353506.213715  0.000000
  -353506.213715  184124.722441  0.000000
  0.000000  0.000000  0.000000


  -613954.864196  -278524.011539  0.000000
  -278524.011539  170677.661732  0.000000
  0.000000  0.000000  0.000000


  -376983.001584  -340925.039470  0.000000
  -340925.039470  157349.571647  0.000000
  0.000000  0.000000  0.000000


  -589080.303542  -342278.738740  0.000000
  -342278.738740  156053.032637  0.000000
  0.000000  0.000000  0.000000


  -309491.564316  -457339.787026  0.000000
  -457339.787026  80853.046108  0.000000
  0.000000  0.000000  0.000000


  -628840.797251  -277228.430742  0.000000
  -277228.430742  229212.418144  0.000000
  0.000000  0.000000  0.000000


  -756145.933247  -210074.670500  0.000000
  -210074.670500  190247.251103  0.000000
  0.000000  0.000000  0.000000


  -521687.119890  -288194.772676  0.000000
  -288194.772676  201188.154998  0.000000
  0.000000  0.000000  0.000000


  -135065.807756  -540888.579052  0.000000
  -540888.579052  64718.950150  0.000000
  0.000000  0.000000  0.000000


  -504069.959420  -275446.677568  0.000000
  -275446.677568  129744.103425  0.000000
  0.000000  0.000000  0.000000


  -344944.237124  -312103.976918  0.000000
  -312103.976918  101409.843660  0.000000
  0.000000  0.000000  0.000000


  -721184.117796  -189886.241280  0.000000
  -189886.241280  248330.171995  0.000000
  0.000000  0.000000  0.000000


  -616711.068636  -220965.297230  0.000000
  -220965.297230  233972.677377  0.000000
  0.000000  0.000000  0.000000


  -630200.473159  -224615.634103  0.000000
  -224615.634103  161032.053070  0.000000
  0.000000  0.000000  0.000000


  -525406.863029  -233265.097461  0.000000
  -233265.097461  194858.460468  0.000000
  0.000000  0.000000  0.000000


  -617966.602618  -180349.805119  0.000000
  -180349.805119  152449.531825  0.000000
  0.000000  0.000000  0.000000


  -523496.033659  -226702.711250  0.000000
  -226702.711250  131488.605745  0.000000
  0.000000  0.000000  0.000000


  -16278.919632  -460641.834150  0.000000
  -460641.834150  29349.032132  0.000000
  0.000000  0.000000  0.000000


  -177682.247948  -514463.620256  0.000000
  -514463.620256  56006.717636  0.000000
  0.000000  0.000000  0.000000


  -21573.967480  -582359.767853  0.000000
  -582359.767853  23805.268508  0.000000
  0.000000  0.000000  0.000000


  157822.803718  -504703.276704  0.000000
  -504703.276704  9072.944880  0.000000
  0.000000  0.000000  0.000000


  -298000.458222  -571920.689076  0.000000
  -571920.689076  78480.369277  0.000000
  0.000000  0.000000  0.000000


  -484181.647059  -478492.198500  0.000000
  -478492.198500  100205.627347  0.000000
  0.000000  0.000000  0.000000


  110980.991699  -269957.459237  0.000000
  -269957.459237  3464.162414  0.000000
  0.000000  0.000000  0.000000


  138498.578903  17073.892875  0.000000
  17073.892875  11892.991496  0.000000
  0.000000  0.000000  0.000000


  698730.223459  -63347.174740  0.000000
  -63347.174740  -34008.722606  0.000000
  0.000000  0.000000  0.000000


  695700.121594  34543.553644  0.000000
  34543.553644  -115368.726944  0.000000
  0.000000  0.000000  0.000000


  832370.621797  46135.589324  0.000000
  46135.589324  -55443.057726  0.000000
  0.000000  0.000000  0.000000


  793045.021742  106297.477431  0.000000
  106297.477431  -121580.343665  0.000000
  0.000000  0.000000  0.000000


  898825.390089  45660.742158  0.000000
  45660.742158  -141827.769941  0.000000
  0.000000  0.000000  0.000000


  -175783.266771  -41215.345034  0.000000
  -41215.345034  79956.841764  0.000000
  0.000000  0.000000  0.000000


  -1006193.115423  -113249.811616  0.000000
  -113249.811616  232742.900720  0.000000
  0.000000  0.000000  0.000000


  -1131817.307970  -179692.885059  0.000000
  -179692.885059  163621.395640  0.000000
  0.000000  0.000000  0.000000


  -1168662.755165  -30066.247130  0.000000
  -30066.247130  140301.328092  0.000000
  0.000000  0.000000  0.000000


  1007677.728033  108581.754490  0.000000
  108581.754490  -126664.009834  0.000000
  0.000000  0.000000  0.000000


  1157134.771278  23579.701885  0.000000
  23579.701885  -101274.996453  0.000000
  0.000000  0.000000  0.000000


  888985.087095  113340.828792  0.000000
  113340.828792  -119960.266085  0.000000
  0.000000  0.000000  0.000000


  1011743.805497  43228.969364  0.000000
  43228.969364  -124645.158558  0.000000
  0.000000  0.000000  0.000000


  10915.297631  -53300.856607  0.000000
  -53300.856607  -19838.419053  0.000000
  0.000000  0.000000  0.000000


  -2612.290188  -56780.845645  0.000000
  -56780.845645  -5159.360156  0.000000
  0.000000  0.000000  0.000000


  -17583.924635  -56540.336525  0.000000
  -56540.336525  9519.556013  0.000000
  0.000000  0.000000  0.000000


  -81037.601840  -26059.105799  0.000000
  -26059.105799  58398.918082  0.000000
  0.000000  0.000000  0.000000


  19904.622695  -48672.572262  0.000000
  -48672.572262  -29288.193195  0.000000
  0.000000  0.000000  0.000000


  -359712.824313  -225781.118142  0.000000
  -225781.118142  7300.509176  0.000000
  0.000000  0.000000  0.000000


  -336788.118315  -214184.428513  0.000000
  -214184.428513  18962.127318  0.000000
  0.000000  0.000000  0.000000


  -297259.079271  -213372.288364  0.000000
  -213372.288364  31569.731675  0.000000
  0.000000  0.000000  0.000000


  -280422.789930  -252274.571255  0.000000
  -252274.571255  -16677.639643  0.000000
  0.000000  0.000000  0.000000


  -561894.874442  -266723.971522  0.000000
  -266723.971522  -156669.016117  0.000000
  0.000000  0.000000  0.000000


  42783.446231  -23253.371601  0.000000
  -23253.371601  -52405.988410  0.000000
  0.000000  0.000000  0.000000


  -60882.507739  -38748.735934  0.000000
  -38748.735934  47487.959738  0.000000
  0.000000  0.000000  0.000000


  -54871.709481  -51642.054880  0.000000
  -51642.054880  39971.492135  0.000000
  0.000000  0.000000  0.000000


  -344038.557884  -266580.643349  0.000000
  -266580.643349  -61307.123115  0.000000
  0.000000  0.000000  0.000000


  -42071.069999  -49486.641039  0.000000
  -49486.641039  32683.389625  0.000000
  0.000000  0.000000  0.000000


  -316557.574392  17739.931706  0.000000
  17739.931706  69804.430046  0.000000
  0.000000  0.000000  0.000000


  -869318.549245  -6165.203415  0.000000
  -6165.203415  159827.633673  0.000000
  0.000000  0.000000  0.000000


  -813531.194861  -38150.249210  0.000000
  -38150.249210  216798.463885  0.000000
  0.000000  0.000000  0.000000


  -905700.968353  -85091.406726  0.000000
  -85091.406726  185314.466860  0.000000
  0.000000  0.000000  0.000000


  -756280.212607  -105476.834928  0.000000
  -105476.834928  237018.222013  0.000000
  0.000000  0.000000  0.000000


  -813532.236858  -147534.000928  0.000000
  -147534.000928  249249.148256  0.000000
  0.000000  0.000000  0.000000


  -1011559.959617  -122929.776485  0.000000
  -122929.776485  189185.043885  0.000000
  0.000000  0.000000  0.000000


  -84287.983684  -56677.765109  0.000000
  -56677.765109  43337.265347  0.000000
  0.000000  0.000000  0.000000


  -76028.951181  -64149.433084  0.000000
  -64149.433084  48861.313325  0.000000
  0.000000  0.000000  0.000000


  -75734.126365  -65396.222485  0.000000
  -65396.222485  42695.644940  0.000000
  0.000000  0.000000  0.000000


  -92185.638285  -66177.841125  0.000000
  -66177.841125  44820.485892  0.000000
  0.000000  0.000000  0.000000


  639854.846746  34890.117343  0.000000
  34890.117343  -60323.130953  0.000000
  0.000000  0.000000  0.000000


  712267.781145  76742.301170  0.000000
  76742.301170  61046.643987  0.000000
  0.000000  0.000000  0.000000


  738628.443160  39048.654330  0.000000
  39048.654330  -128073.260821  0.000000
  0.000000  0.000000  0.000000


  -749858.818879  -170909.437566  0.000000
  -170909.437566  -52965.666819  0.000000
  0.000000  0.000000  0.000000


  -67867.995754  -54737.011540  0.000000
  -54737.011540  43013.805291  0.000000
  0.000000  0.000000  0.000000


  -418333.533634  -238829.240762  0.000000
  -238829.240762  163875.552278  0.000000
  0.000000  0.000000  0.000000


  -53658.099742  -43475.766652  0.000000
  -43475.766652  42510.075070  0.000000
  0.000000  0.000000  0.000000


  -403815.730115  -269275.362847  0.000000
  -269275.362847  -142547.930751  0.000000
  0.000000  0.000000  0.000000


  -528879.607273  -190635.408530  0.000000
  -190635.408530  181762.595120  0.000000
  0.000000  0.000000  0.000000


  -212072.995231  -371481.990767  0.000000
  -371481.990767  104928.259141  0.000000
  0.000000  0.000000  0.000000


  -140616.631263  -323353.085428  0.000000
  -323353.085428  63680.020462  0.000000
  0.000000  0.000000  0.000000


  -162912.798358  -335304.985265  0.000000
  -335304.985265  60413.671249  0.000000
  0.000000  0.000000  0.000000


  -200963.389032  -286747.226272  0.000000
  -286747.226272  100924.490459  0.000000
  0.000000  0.000000  0.000000


  -61517.355530  -285949.450914  0.000000
  -285949.450914  41404.114521  0.000000
  0.000000  0.000000  0.000000


  -99761.294034  -297907.457110  0.000000
  -297907.457110  31785.432399  0.000000
  0.000000  0.000000  0.000000


  -306751.460309  -317208.006863  0.000000
  -317208.006863  112821.572754  0.000000
  0.000000  0.000000  0.000000


  -394350.505761  -259006.032716  0.000000
  -259006.032716  94753.083503  0.000000
  0.000000  0.000000  0.000000


  -280381.056811  -262965.721942  0.000000
  -262965.721942  123566.719379  0.000000
  0.000000  0.000000  0.000000


  -416518.648792  -277074.088699  0.000000
  -277074.088699  158657.570815  0.000000
  0.000000  0.000000  0.000000


  -402758.698884  -222433.706549  0.000000
  -222433.706549  92128.899008  0.000000
  0.000000  0.000000  0.000000


  -296334.732908  -280447.716724  0.000000
  -280447.716724  68782.264382  0.000000
  0.000000  0.000000  0.000000


  -154156.673700  -253416.273275  0.000000
  -253416.273275  50257.569804  0.000000
  0.000000  0.000000  0.000000


  988.187286  -252165.364027  0.000000
  -252165.364027  19492.698177  0.000000
  0.000000  0.000000  0.000000


  -613922.419080  -177801.469018  0.000000
  -177801.469018  213815.816486  0.000000
  0.000000  0.000000  0.000000


  -689998.356562  -140050.339957  0.000000
  -140050.339957  158074.258830  0.000000
  0.000000  0.000000  0.000000


  -866754.982130  -177042.984618  0.000000
  -177042.984618  199738.751143  0.000000
  0.000000  0.000000  0.000000


  -350832.412629  -168212.136919  0.000000
  -168212.136919  55441.347646  0.000000
  0.000000  0.000000  0.000000


  -292061.936910  -240128.838900  0.000000
  -240128.838900  -21629.660302  0.000000
  0.000000  0.000000  0.000000


  -249942.900872  -272194.874882  0.000000
  -272194.874882  -59813.417766  0.000000
  0.000000  0.000000  0.000000


  -202361.327135  -248647.436125  0.000000
  -248647.436125  -32339.078786  0.000000
  0.000000  0.000000  0.000000


  -248595.425631  -243593.331868  0.000000
  -243593.331868  -62551.784341  0.000000
  0.000000  0.000000  0.000000


  -87435.360195  -62911.066049  0.000000
  -62911.066049  55077.495922  0.000000
  0.000000  0.000000  0.000000


  -806040.923477  -142154.916149  0.000000
  -142154.916149  200398.510880  0.000000
  0.000000  0.000000  0.000000


  -686035.572721  -154860.104330  0.000000
  -154860.104330  236976.353331  0.000000
  0.000000  0.000000  0.000000


  -745812.147646  -115426.894725  0.000000
  -115426.894725  182900.356426  0.000000
  0.000000  0.000000  0.000000


  -274184.165382  -203182.374305  0.000000
  -203182.374305  31670.178390  0.000000
  0.000000  0.000000  0.000000


  -71115.779471  -73900.042210  0.000000
  -73900.042210  42093.733053  0.000000
  0.000000  0.000000  0.000000


  -714368.410216  -171030.599145  0.000000
  -171030.599145  183987.335018  0.000000
  0.000000  0.000000  0.000000


  -246831.165762  -234664.405690  0.000000
  -234664.405690  -1432.144435  0.000000
  0.000000  0.000000  0.000000


  -67424.791643  -63007.448320  0.000000
  -63007.448320  39972.728228  0.000000
  0.000000  0.000000  0.000000


  -546733.751058  -491298.540221  0.000000
  -491298.540221  -58733.769362  0.000000
  0.000000  0.000000  0.000000


  -81806.084842  -75232.814571  0.000000
  -75232.814571  50544.610175  0.000000
  0.000000  0.000000  0.000000


  -275255.204368  -84632.189794  0.000000
  -84632.189794  78730.425606  0.000000
  0.000000  0.000000  0.000000


  -59932.651141  -62828.811486  0.000000
  -62828.811486  28107.206380  0.000000
  0.000000  0.000000  0.000000


  -50766.766684  -68265.594868  0.000000
  -68265.594868  34821.780991  0.000000
  0.000000  0.000000  0.000000


  -49437.613975  -67604.993792  0.000000
  -67604.993792  29001.821231  0.000000
  0.000000  0.000000  0.000000


  -50606.228471  -64849.973846  0.000000
  -64849.973846  24221.490642  0.000000
  0.000000  0.000000  0.000000


  -61275.126315  -69715.566093  0.000000
  -69715.566093  30967.619898  0.000000
  0.000000  0.000000  0.000000


  -295309.671607  -269082.821132  0.000000
  -269082.821132  -95903.249530  0.000000
  0.000000  0.000000  0.000000


  -204014.411410  -264205.830317  0.000000
  -264205.830317  -28902.396413  0.000000
  0.000000  0.000000  0.000000


  -165698.754670  -245228.719577  0.000000
  -245228.719577  -16372.411878  0.000000
  0.000000  0.000000  0.000000


  -165380.869418  -251818.774323  0.000000
  -251818.774323  -14710.729331  0.000000
  0.000000  0.000000  0.000000


  -132720.608314  -268182.151719  0.000000
  -268182.151719  -36652.226996  0.000000
  0.000000  0.000000  0.000000


  -170168.173826  -274530.485957  0.000000
  -274530.485957  -56223.786882  0.000000
  0.000000  0.000000  0.000000


  30736.419909  -55305.887324  0.000000
  -55305.887324  -42037.067740  0.000000
  0.000000  0.000000  0.000000


  22161.087826  -63079.660581  0.000000
  -63079.660581  -29756.824283  0.000000
  0.000000  0.000000  0.000000


  1637207.627496  -436162.068020  0.000000
  -436162.068020  211003.495045  0.000000
  0.000000  0.000000  0.000000


  -63751.888278  -62710.986643  0.000000
  -62710.986643  34315.165584  0.000000
  0.000000  0.000000  0.000000


  39511.656365  -53038.849271  0.000000
  -53038.849271  -46642.600198  0.000000
  0.000000  0.000000  0.000000


  -275365.044535  -41651.628562  0.000000
  -41651.628562  91539.092074  0.000000
  0.000000  0.000000  0.000000


  -223154.256692  -73485.431169  0.000000
  -73485.431169  76828.314431  0.000000
  0.000000  0.000000  0.000000


  97080.680987  -532446.871021  0.000000
  -532446.871021  -1467.122563  0.000000
  0.000000  0.000000  0.000000


  28434.016431  -49671.427475  0.000000
  -49671.427475  -38502.394009  0.000000
  0.000000  0.000000  0.000000


  -205631.573260  -272789.386181  0.000000
  -272789.386181  -77260.449730  0.000000
  0.000000  0.000000  0.000000


  -598361.760898  -122058.667797  0.000000
  -122058.667797  -7784.123497  0.000000
  0.000000  0.000000  0.000000


  -100494.367360  -48847.257216  0.000000
  -48847.257216  53565.912240  0.000000
  0.000000  0.000000  0.000000


  515717.013244  -18787.573812  0.000000
  -18787.573812  10434.289205  0.000000
  0.000000  0.000000  0.000000


  55524.445561  -41961.481542  0.000000
  -41961.481542  -46938.016945  0.000000
  0.000000  0.000000  0.000000


  -25917.329467  -67751.647970  0.000000
  -67751.647970  7901.912919  0.000000
  0.000000  0.000000  0.000000


  -35029.874959  -67266.435745  0.000000
  -67266.435745  12497.442922  0.000000
  0.000000  0.000000  0.000000


  70899.247298  -217961.078533  0.000000
  -217961.078533  1323.475260  0.000000
  0.000000  0.000000  0.000000


  -11842.279313  -68267.564379  0.000000
  -68267.564379  -2354.326712  0.000000
  0.000000  0.000000  0.000000


  557357.970521  -120680.644582  0.000000
  -120680.644582  -63124.856153  0.000000
  0.000000  0.000000  0.000000


  100387.158179  -12614.626589  0.000000
  -12614.626589  -34967.245658  0.000000
  0.000000  0.000000  0.000000


  -127910.234316  -233780.230346  0.000000
  -233780.230346  -1574.721968  0.000000
  0.000000  0.000000  0.000000


  79908.927685  -29015.179059  0.000000
  -29015.179059  -51842.570090  0.000000
  0.000000  0.000000  0.000000


  73919.221573  -31723.021929  0.000000
  -31723.021929  -52554.434956  0.000000
  0.000000  0.000000  0.000000


  345233.819655  -133621.318964  0.000000
  -133621.318964  -29573.689252  0.000000
  0.000000  0.000000  0.000000


  350549.712731  -134576.460900  0.000000
  -134576.460900  27996.708290  0.000000
  0.000000  0.000000  0.000000


  249097.897075  -183659.561793  0.000000
  -183659.561793  -30873.145067  0.000000
  0.000000  0.000000  0.000000


  238931.675758  -176692.445903  0.000000
  -176692.445903  10437.987418  0.000000
  0.000000  0.000000  0.000000


  268609.944145  -179660.224920  0.000000
  -179660.224920  -1619.935751  0.000000
  0.000000  0.000000  0.000000


  149606.971542  -221229.316897  0.000000
  -221229.316897  -23996.565395  0.000000
  0.000000  0.000000  0.000000


  115465.001756  -203924.783634  0.000000
  -203924.783634  3616.023999  0.000000
  0.000000  0.000000  0.000000


  181634.579962  -212207.508277  0.000000
  -212207.508277  -11624.474551  0.000000
  0.000000  0.000000  0.000000


  41117.096035  -243582.999410  0.000000
  -243582.999410  -7347.099455  0.000000
  0.000000  0.000000  0.000000


  93799.480773  -233693.822554  0.000000
  -233693.822554  -10569.173516  0.000000
  0.000000  0.000000  0.000000


  -9103.938142  -214907.636717  0.000000
  -214907.636717  -352.339716  0.000000
  0.000000  0.000000  0.000000


  249599.951731  -168935.795184  0.000000
  -168935.795184  16557.258514  0.000000
  0.000000  0.000000  0.000000


  208075.831905  -213838.723548  0.000000
  -213838.723548  -325.925027  0.000000
  0.000000  0.000000  0.000000


  179998.012591  -197972.790111  0.000000
  -197972.790111  -2593.572048  0.000000
  0.000000  0.000000  0.000000


  267760.120423  -175531.047391  0.000000
  -175531.047391  17197.257728  0.000000
  0.000000  0.000000  0.000000


  342095.007214  -134504.116525  0.000000
  -134504.116525  45229.959512  0.000000
  0.000000  0.000000  0.000000


  39674.980107  -208661.017528  0.000000
  -208661.017528  -9460.018469  0.000000
  0.000000  0.000000  0.000000


  146831.471566  -193494.567340  0.000000
  -193494.567340  1048.454900  0.000000
  0.000000  0.000000  0.000000


  122211.221372  -231635.663425  0.000000
  -231635.663425  -13239.651983  0.000000
  0.000000  0.000000  0.000000


  92360.265884  -212250.990099  0.000000
  -212250.990099  -15407.600815  0.000000
  0.000000  0.000000  0.000000


  32814.551106  -239709.714019  0.000000
  -239709.714019  -18258.986600  0.000000
  0.000000  0.000000  0.000000


  -9518.005815  -216462.808237  0.000000
  -216462.808237  -25036.057088  0.000000
  0.000000  0.000000  0.000000


  70364.011545  -244323.567370  0.000000
  -244323.567370  -22394.268152  0.000000
  0.000000  0.000000  0.000000


  -59119.529456  -240838.438615  0.000000
  -240838.438615  -13678.607246  0.000000
  0.000000  0.000000  0.000000


  -3940.174426  -248149.231432  0.000000
  -248149.231432  -30588.095282  0.000000
  0.000000  0.000000  0.000000


  -68334.863959  -210234.803404  0.000000
  -210234.803404  -21929.308276  0.000000
  0.000000  0.000000  0.000000


  -109972.276451  -238538.909479  0.000000
  -238538.909479  11675.882037  0.000000
  0.000000  0.000000  0.000000


  -130959.742456  -214045.910789  0.000000
  -214045.910789  5143.234052  0.000000
  0.000000  0.000000  0.000000


  -183867.830504  -201679.209753  0.000000
  -201679.209753  -20055.952684  0.000000
  0.000000  0.000000  0.000000


  -109775.757528  -209578.754495  0.000000
  -209578.754495  -40546.217692  0.000000
  0.000000  0.000000  0.000000


  -58849.307366  -221217.211447  0.000000
  -221217.211447  -47262.122394  0.000000
  0.000000  0.000000  0.000000


  30545.413174  -220624.827210  0.000000
  -220624.827210  -35998.444337  0.000000
  0.000000  0.000000  0.000000


  33969.671191  -256543.339364  0.000000
  -256543.339364  -38796.893136  0.000000
  0.000000  0.000000  0.000000


  -5078.244803  -233629.659558  0.000000
  -233629.659558  -50826.814395  0.000000
  0.000000  0.000000  0.000000


  70324.143629  -229199.895180  0.000000
  -229199.895180  -39726.845174  0.000000
  0.000000  0.000000  0.000000


  -70128.962978  -249226.526240  0.000000
  -249226.526240  16730.250937  0.000000
  0.000000  0.000000  0.000000


  -46320.778376  -256213.224677  0.000000
  -256213.224677  -50192.285293  0.000000
  0.000000  0.000000  0.000000


  -92644.260678  -231487.829880  0.000000
  -231487.829880  -62138.777035  0.000000
  0.000000  0.000000  0.000000


  -128695.354598  -251953.905129  0.000000
  -251953.905129  -56758.691114  0.000000
  0.000000  0.000000  0.000000


  -79598.963384  -264692.856645  0.000000
  -264692.856645  -64118.227558  0.000000
  0.000000  0.000000  0.000000


  72201.864896  -258853.324975  0.000000
  -258853.324975  -45277.797889  0.000000
  0.000000  0.000000  0.000000


  -7043.009793  -242608.781609  0.000000
  -242608.781609  -762.614345  0.000000
  0.000000  0.000000  0.000000


  -9245.278615  -264446.245801  0.000000
  -264446.245801  -52575.517139  0.000000
  0.000000  0.000000  0.000000


  113867.123080  -248684.360329  0.000000
  -248684.360329  -32290.192712  0.000000
  0.000000  0.000000  0.000000


  119395.761466  -215607.402789  0.000000
  -215607.402789  -21345.850633  0.000000
  0.000000  0.000000  0.000000


  152957.235674  -232498.623513  0.000000
  -232498.623513  -12725.057062  0.000000
  0.000000  0.000000  0.000000


  211274.392549  -203110.358459  0.000000
  -203110.358459  -11196.018231  0.000000
  0.000000  0.000000  0.000000


  175584.208843  -234827.361721  0.000000
  -234827.361721  -15786.797106  0.000000
  0.000000  0.000000  0.000000


  234581.348756  -216893.935090  0.000000
  -216893.935090  1870.206021  0.000000
  0.000000  0.000000  0.000000


  -183104.297749  -220783.632781  0.000000
  -220783.632781  -80916.038218  0.000000
  0.000000  0.000000  0.000000


  -48078.042026  -242119.124106  0.000000
  -242119.124106  -59326.647383  0.000000
  0.000000  0.000000  0.000000


  -44988.467348  -272108.357924  0.000000
  -272108.357924  -61279.678277  0.000000
  0.000000  0.000000  0.000000


  -83465.707777  -250320.683729  0.000000
  -250320.683729  -49912.096510  0.000000
  0.000000  0.000000  0.000000


  -9972.818090  -247953.301400  0.000000
  -247953.301400  -53657.556886  0.000000
  0.000000  0.000000  0.000000


  152573.706547  -218978.109376  0.000000
  -218978.109376  -31556.634295  0.000000
  0.000000  0.000000  0.000000


  135983.811393  -250702.577900  0.000000
  -250702.577900  -37626.741672  0.000000
  0.000000  0.000000  0.000000


  108842.314764  -232038.355485  0.000000
  -232038.355485  -45746.777411  0.000000
  0.000000  0.000000  0.000000


  96907.224261  -257879.562003  0.000000
  -257879.562003  -52841.416255  0.000000
  0.000000  0.000000  0.000000


  175649.459312  -221014.705207  0.000000
  -221014.705207  -42524.360879  0.000000
  0.000000  0.000000  0.000000


  69737.977620  -241156.113428  0.000000
  -241156.113428  -53324.751096  0.000000
  0.000000  0.000000  0.000000


  54072.551250  -260991.870149  0.000000
  -260991.870149  -59610.581925  0.000000
  0.000000  0.000000  0.000000


  132200.108426  -229478.200001  0.000000
  -229478.200001  -51975.694994  0.000000
  0.000000  0.000000  0.000000


  165872.860808  -243076.054988  0.000000
  -243076.054988  -49642.044945  0.000000
  0.000000  0.000000  0.000000


  205297.125757  -212257.239624  0.000000
  -212257.239624  -53369.786199  0.000000
  0.000000  0.000000  0.000000


  184623.665971  -229059.258595  0.000000
  -229059.258595  -63336.225743  0.000000
  0.000000  0.000000  0.000000


  235880.498756  -224851.876421  0.000000
  -224851.876421  -49917.598020  0.000000
  0.000000  0.000000  0.000000


  209001.185553  -236100.862647  0.000000
  -236100.862647  -34910.501304  0.000000
  0.000000  0.000000  0.000000


  27483.600931  -245718.495602  0.000000
  -245718.495602  -50002.880810  0.000000
  0.000000  0.000000  0.000000


  94620.943385  -234976.597532  0.000000
  -234976.597532  -54685.326674  0.000000
  0.000000  0.000000  0.000000


  120229.584195  -247758.226273  0.000000
  -247758.226273  -60661.695648  0.000000
  0.000000  0.000000  0.000000


  -154565.479074  -211354.991205  0.000000
  -211354.991205  -66939.082835  0.000000
  0.000000  0.000000  0.000000


  -128879.838348  -240805.500168  0.000000
  -240805.500168  -65401.250849  0.000000
  0.000000  0.000000  0.000000


  232518.506748  -208645.321784  0.000000
  -208645.321784  -19549.389940  0.000000
  0.000000  0.000000  0.000000


  253599.166900  -220382.717946  0.000000
  -220382.717946  -9729.878357  0.000000
  0.000000  0.000000  0.000000


  312428.199687  -191793.927081  0.000000
  -191793.927081  -15791.198165  0.000000
  0.000000  0.000000  0.000000


  293140.737371  -183142.301676  0.000000
  -183142.301676  12253.029671  0.000000
  0.000000  0.000000  0.000000


  314208.894782  -195878.355919  0.000000
  -195878.355919  23987.327548  0.000000
  0.000000  0.000000  0.000000


  276121.541204  -215098.205198  0.000000
  -215098.205198  -23215.413918  0.000000
  0.000000  0.000000  0.000000


  336882.378190  -180897.126113  0.000000
  -180897.126113  -38185.348251  0.000000
  0.000000  0.000000  0.000000


  282815.374231  -193819.089101  0.000000
  -193819.089101  -52667.352794  0.000000
  0.000000  0.000000  0.000000


  351818.621211  -188889.408340  0.000000
  -188889.408340  -23622.361821  0.000000
  0.000000  0.000000  0.000000


  251386.696315  -203329.883498  0.000000
  -203329.883498  -37261.358985  0.000000
  0.000000  0.000000  0.000000


  378139.380085  -165170.045231  0.000000
  -165170.045231  16954.501769  0.000000
  0.000000  0.000000  0.000000


  352684.696416  -152768.231102  0.000000
  -152768.231102  38220.333428  0.000000
  0.000000  0.000000  0.000000


  294904.217585  -189551.478416  0.000000
  -189551.478416  25114.640784  0.000000
  0.000000  0.000000  0.000000


  277576.100462  -189873.237864  0.000000
  -189873.237864  -54627.830331  0.000000
  0.000000  0.000000  0.000000


  235399.520473  -206385.928089  0.000000
  -206385.928089  -69246.246789  0.000000
  0.000000  0.000000  0.000000


  226061.304292  -199034.240098  0.000000
  -199034.240098  -63805.659956  0.000000
  0.000000  0.000000  0.000000


  188600.501020  -210593.420631  0.000000
  -210593.420631  -77613.804834  0.000000
  0.000000  0.000000  0.000000


  278684.833023  -171933.399753  0.000000
  -171933.399753  -69199.111871  0.000000
  0.000000  0.000000  0.000000


  181143.791711  -205520.242515  0.000000
  -205520.242515  -63897.755811  0.000000
  0.000000  0.000000  0.000000


  228515.214067  -178531.995280  0.000000
  -178531.995280  -72275.881607  0.000000
  0.000000  0.000000  0.000000


  236789.193070  -180127.345595  0.000000
  -180127.345595  -84797.731576  0.000000
  0.000000  0.000000  0.000000


  282063.293567  -144522.741923  0.000000
  -144522.741923  -76844.882561  0.000000
  0.000000  0.000000  0.000000


  228541.933295  -150764.988932  0.000000
  -150764.988932  -95810.095676  0.000000
  0.000000  0.000000  0.000000


  278204.100803  -140716.416451  0.000000
  -140716.416451  -94677.911757  0.000000
  0.000000  0.000000  0.000000


  288509.661589  -174789.958259  0.000000
  -174789.958259  -77414.910043  0.000000
  0.000000  0.000000  0.000000


  349559.524621  -162613.085149  0.000000
  -162613.085149  -53637.538590  0.000000
  0.000000  0.000000  0.000000


  339322.862494  -156796.060834  0.000000
  -156796.060834  -67700.064494  0.000000
  0.000000  0.000000  0.000000


  414242.435462  -118494.622816  0.000000
  -118494.622816  -57960.405463  0.000000
  0.000000  0.000000  0.000000


  414672.003959  -145139.084786  0.000000
  -145139.084786  -39707.975832  0.000000
  0.000000  0.000000  0.000000


  406624.878264  -141968.802107  0.000000
  -141968.802107  -26685.389700  0.000000
  0.000000  0.000000  0.000000


  481579.415430  -95685.809083  0.000000
  -95685.809083  -39512.768192  0.000000
  0.000000  0.000000  0.000000


  488562.973651  -115525.013844  0.000000
  -115525.013844  6807.013164  0.000000
  0.000000  0.000000  0.000000


  320845.886569  -124057.357598  0.000000
  -124057.357598  -87765.325037  0.000000
  0.000000  0.000000  0.000000


  382184.010706  -86331.008802  0.000000
  -86331.008802  -71189.443273  0.000000
  0.000000  0.000000  0.000000


  295522.620738  -88746.526368  0.000000
  -88746.526368  -99418.838894  0.000000
  0.000000  0.000000  0.000000


  342623.823682  -66970.225804  0.000000
  -66970.225804  -98022.710514  0.000000
  0.000000  0.000000  0.000000


  339121.154155  -133116.544158  0.000000
  -133116.544158  -72570.713739  0.000000
  0.000000  0.000000  0.000000


  386217.700636  -101366.511653  0.000000
  -101366.511653  -71163.754818  0.000000
  0.000000  0.000000  0.000000


  378791.164382  -166078.882649  0.000000
  -166078.882649  -9098.334872  0.000000
  0.000000  0.000000  0.000000


  441059.782579  -192055.135981  0.000000
  -192055.135981  27730.465225  0.000000
  0.000000  0.000000  0.000000


  381790.699189  -156544.832738  0.000000
  -156544.832738  62847.000888  0.000000
  0.000000  0.000000  0.000000


  330449.225842  -202194.201249  0.000000
  -202194.201249  15459.094203  0.000000
  0.000000  0.000000  0.000000


  340543.897628  -64686.425069  0.000000
  -64686.425069  -75969.522559  0.000000
  0.000000  0.000000  0.000000


  461021.844092  -58890.112900  0.000000
  -58890.112900  -57534.083410  0.000000
  0.000000  0.000000  0.000000


  394940.365607  2437.702614  0.000000
  2437.702614  -70706.438615  0.000000
  0.000000  0.000000  0.000000


  446396.933556  25338.465850  0.000000
  25338.465850  -33054.409330  0.000000
  0.000000  0.000000  0.000000


  563841.429382  16791.352049  0.000000
  16791.352049  -27174.872099  0.000000
  0.000000  0.000000  0.000000


  321664.224291  -106003.269249  0.000000
  -106003.269249  -78531.748513  0.000000
  0.000000  0.000000  0.000000


  250498.343566  -112844.539607  0.000000
  -112844.539607  -102809.332892  0.000000
  0.000000  0.000000  0.000000


  267112.290589  -122796.262750  0.000000
  -122796.262750  -80344.295291  0.000000
  0.000000  0.000000  0.000000


  209504.361264  -127679.681713  0.000000
  -127679.681713  -100182.685707  0.000000
  0.000000  0.000000  0.000000


  288633.064028  -84420.190977  0.000000
  -84420.190977  -79079.985240  0.000000
  0.000000  0.000000  0.000000


  222529.045086  -135195.923010  0.000000
  -135195.923010  -76833.079696  0.000000
  0.000000  0.000000  0.000000


  244676.462246  -100570.057732  0.000000
  -100570.057732  -78969.069391  0.000000
  0.000000  0.000000  0.000000


  222740.151130  -89200.049093  0.000000
  -89200.049093  -101737.776114  0.000000
  0.000000  0.000000  0.000000


  255987.753166  -64853.324102  0.000000
  -64853.324102  -75390.282677  0.000000
  0.000000  0.000000  0.000000


  253901.911135  -67813.103546  0.000000
  -67813.103546  -104317.359433  0.000000
  0.000000  0.000000  0.000000


  291290.086770  -44932.293677  0.000000
  -44932.293677  -72025.953973  0.000000
  0.000000  0.000000  0.000000


  222587.002607  -49785.349704  0.000000
  -49785.349704  -94342.973613  0.000000
  0.000000  0.000000  0.000000


  251782.282520  -30714.300440  0.000000
  -30714.300440  -65503.093073  0.000000
  0.000000  0.000000  0.000000


  247385.945427  -24884.780054  0.000000
  -24884.780054  -90121.103902  0.000000
  0.000000  0.000000  0.000000


  195575.777809  -36515.735934  0.000000
  -36515.735934  -84257.740512  0.000000
  0.000000  0.000000  0.000000


  210495.666510  -13706.563400  0.000000
  -13706.563400  -82473.794418  0.000000
  0.000000  0.000000  0.000000


  199108.645960  -70597.867541  0.000000
  -70597.867541  -95409.906091  0.000000
  0.000000  0.000000  0.000000


  224093.077447  -53600.870848  0.000000
  -53600.870848  -70364.645753  0.000000
  0.000000  0.000000  0.000000


  172820.879257  -58870.029097  0.000000
  -58870.029097  -88085.640470  0.000000
  0.000000  0.000000  0.000000


  195838.796900  -72136.937280  0.000000
  -72136.937280  -71532.769086  0.000000
  0.000000  0.000000  0.000000


  193492.613309  -45156.325749  0.000000
  -45156.325749  -65108.120433  0.000000
  0.000000  0.000000  0.000000


  212146.806553  -26819.929024  0.000000
  -26819.929024  -62327.172424  0.000000
  0.000000  0.000000  0.000000


  280452.394468  -2992.511986  0.000000
  -2992.511986  -55914.219024  0.000000
  0.000000  0.000000  0.000000


  223644.182919  20218.316792  0.000000
  20218.316792  -68998.740604  0.000000
  0.000000  0.000000  0.000000


  234974.758015  25943.417456  0.000000
  25943.417456  -40944.370975  0.000000
  0.000000  0.000000  0.000000


  301338.080399  30404.715288  0.000000
  30404.715288  -40406.239340  0.000000
  0.000000  0.000000  0.000000


  406768.612470  -22082.873161  0.000000
  -22082.873161  -60999.980039  0.000000
  0.000000  0.000000  0.000000


  232428.795478  809.978995  0.000000
  809.978995  -50732.115897  0.000000
  0.000000  0.000000  0.000000


  138751.522221  -212079.527080  0.000000
  -212079.527080  -77817.419365  0.000000
  0.000000  0.000000  0.000000


  318640.687968  -14717.271471  0.000000
  -14717.271471  -63854.085170  0.000000
  0.000000  0.000000  0.000000


  274203.933133  12787.316793  0.000000
  12787.316793  -66681.680974  0.000000
  0.000000  0.000000  0.000000


  318646.246644  17791.872793  0.000000
  17791.872793  -53813.479393  0.000000
  0.000000  0.000000  0.000000


  226795.052748  79956.585433  0.000000
  79956.585433  -40936.194718  0.000000
  0.000000  0.000000  0.000000


  323154.826533  15548.130700  0.000000
  15548.130700  -73931.439911  0.000000
  0.000000  0.000000  0.000000


  132179.594764  -230649.472918  0.000000
  -230649.472918  -70994.198428  0.000000
  0.000000  0.000000  0.000000


  117404.606718  -223944.839214  0.000000
  -223944.839214  -57215.167213  0.000000
  0.000000  0.000000  0.000000


  75225.502303  -247618.594890  0.000000
  -247618.594890  -62290.475940  0.000000
  0.000000  0.000000  0.000000


  52541.611699  -236424.629597  0.000000
  -236424.629597  -49445.574846  0.000000
  0.000000  0.000000  0.000000


  97681.226192  -232243.891663  0.000000
  -232243.891663  -66045.624828  0.000000
  0.000000  0.000000  0.000000


  14811.471573  -259096.769670  0.000000
  -259096.769670  -54442.878948  0.000000
  0.000000  0.000000  0.000000


  38999.454818  -246239.291485  0.000000
  -246239.291485  -55583.721032  0.000000
  0.000000  0.000000  0.000000


  190145.696113  -185379.558938  0.000000
  -185379.558938  -86580.027874  0.000000
  0.000000  0.000000  0.000000


  180311.432447  -158656.651801  0.000000
  -158656.651801  -94332.510122  0.000000
  0.000000  0.000000  0.000000


  190062.541230  -164485.932004  0.000000
  -164485.932004  -71105.710047  0.000000
  0.000000  0.000000  0.000000


  231673.491420  -153774.624235  0.000000
  -153774.624235  -76377.741412  0.000000
  0.000000  0.000000  0.000000


  145386.493649  -188902.198853  0.000000
  -188902.198853  -83720.673199  0.000000
  0.000000  0.000000  0.000000


  145673.667076  -167597.203570  0.000000
  -167597.203570  -86310.097263  0.000000
  0.000000  0.000000  0.000000


  136492.639926  -187405.295925  0.000000
  -187405.295925  -63945.470419  0.000000
  0.000000  0.000000  0.000000


  169513.576614  -137982.424182  0.000000
  -137982.424182  -94595.021502  0.000000
  0.000000  0.000000  0.000000


  189641.545233  -104928.232782  0.000000
  -104928.232782  -98007.352053  0.000000
  0.000000  0.000000  0.000000


  72678.874409  -222700.938608  0.000000
  -222700.938608  -51604.292102  0.000000
  0.000000  0.000000  0.000000


  129529.333310  -206238.928031  0.000000
  -206238.928031  -61206.071434  0.000000
  0.000000  0.000000  0.000000


  102908.393862  -212939.908710  0.000000
  -212939.908710  -70895.704871  0.000000
  0.000000  0.000000  0.000000


  93750.294935  -206584.928788  0.000000
  -206584.928788  -51994.053937  0.000000
  0.000000  0.000000  0.000000


  170046.895279  -86789.791080  0.000000
  -86789.791080  -93051.826021  0.000000
  0.000000  0.000000  0.000000


  191881.965271  -98914.484875  0.000000
  -98914.484875  -71613.747740  0.000000
  0.000000  0.000000  0.000000


  221005.061913  -81981.460935  0.000000
  -81981.460935  -75193.323843  0.000000
  0.000000  0.000000  0.000000


  157911.760725  -117889.761646  0.000000
  -117889.761646  -92395.755827  0.000000
  0.000000  0.000000  0.000000


  168683.965848  -124820.038179  0.000000
  -124820.038179  -70456.521443  0.000000
  0.000000  0.000000  0.000000


  146280.062199  -101835.887720  0.000000
  -101835.887720  -87188.013972  0.000000
  0.000000  0.000000  0.000000


  138771.159430  -146655.281587  0.000000
  -146655.281587  -85879.099026  0.000000
  0.000000  0.000000  0.000000


  179295.675120  -143689.943178  0.000000
  -143689.943178  -72086.222708  0.000000
  0.000000  0.000000  0.000000


  133394.542498  -125485.517840  0.000000
  -125485.517840  -81806.105714  0.000000
  0.000000  0.000000  0.000000


  142964.871252  -167697.002610  0.000000
  -167697.002610  -64636.357048  0.000000
  0.000000  0.000000  0.000000


  110196.737623  -189882.449447  0.000000
  -189882.449447  -73174.976271  0.000000
  0.000000  0.000000  0.000000


  99606.217392  -186693.399601  0.000000
  -186693.399601  -55738.543884  0.000000
  0.000000  0.000000  0.000000


  67828.633242  -208509.870399  0.000000
  -208509.870399  -60508.529049  0.000000
  0.000000  0.000000  0.000000


  80568.989312  -187270.202893  0.000000
  -187270.202893  -62033.278243  0.000000
  0.000000  0.000000  0.000000


  170201.111418  -85099.580895  0.000000
  -85099.580895  -69673.429979  0.000000
  0.000000  0.000000  0.000000


  151608.852277  -50136.904080  0.000000
  -50136.904080  -80001.553999  0.000000
  0.000000  0.000000  0.000000


  308793.208925  68911.069711  0.000000
  68911.069711  -59985.323212  0.000000
  0.000000  0.000000  0.000000


  151816.200765  -75613.614240  0.000000
  -75613.614240  -86324.827849  0.000000
  0.000000  0.000000  0.000000


  174225.169583  -61386.122672  0.000000
  -61386.122672  -65743.573208  0.000000
  0.000000  0.000000  0.000000


  135666.249520  -64617.802028  0.000000
  -64617.802028  -78645.275879  0.000000
  0.000000  0.000000  0.000000


  164856.762216  -32018.775742  0.000000
  -32018.775742  -78298.229421  0.000000
  0.000000  0.000000  0.000000


  179193.117835  -23518.426221  0.000000
  -23518.426221  -56297.599462  0.000000
  0.000000  0.000000  0.000000


  144982.647269  -29047.301604  0.000000
  -29047.301604  -67997.106230  0.000000
  0.000000  0.000000  0.000000


  151130.764184  -10740.776149  0.000000
  -10740.776149  -65115.139841  0.000000
  0.000000  0.000000  0.000000


  155646.503314  -107528.782898  0.000000
  -107528.782898  -68817.373628  0.000000
  0.000000  0.000000  0.000000


  122399.590895  -109730.940375  0.000000
  -109730.940375  -80182.134849  0.000000
  0.000000  0.000000  0.000000


  128043.900838  -113750.819683  0.000000
  -113750.819683  -62484.106460  0.000000
  0.000000  0.000000  0.000000


  143101.130663  -93494.756349  0.000000
  -93494.756349  -65871.084186  0.000000
  0.000000  0.000000  0.000000


  166164.573245  -40980.568501  0.000000
  -40980.568501  -60481.652899  0.000000
  0.000000  0.000000  0.000000


  132308.175921  -45729.889674  0.000000
  -45729.889674  -72405.958755  0.000000
  0.000000  0.000000  0.000000


  150628.988028  -55858.599808  0.000000
  -55858.599808  -62202.871045  0.000000
  0.000000  0.000000  0.000000


  144632.790889  -37952.668577  0.000000
  -37952.668577  -56530.661783  0.000000
  0.000000  0.000000  0.000000


  153803.713210  -23955.939768  0.000000
  -23955.939768  -52817.011755  0.000000
  0.000000  0.000000  0.000000


  163698.648766  -3020.535111  0.000000
  -3020.535111  -41302.584952  0.000000
  0.000000  0.000000  0.000000


  186203.011747  -5975.985106  0.000000
  -5975.985106  -52957.176647  0.000000
  0.000000  0.000000  0.000000


  473855.513862  -110745.395416  0.000000
  -110745.395416  19962.107918  0.000000
  0.000000  0.000000  0.000000


  542258.315151  -118038.641563  0.000000
  -118038.641563  -13160.620096  0.000000
  0.000000  0.000000  0.000000


  186871.456303  18195.697721  0.000000
  18195.697721  -56936.077995  0.000000
  0.000000  0.000000  0.000000


  185748.082552  17517.931556  0.000000
  17517.931556  -41956.642247  0.000000
  0.000000  0.000000  0.000000


  224340.157404  50784.155888  0.000000
  50784.155888  -53365.879444  0.000000
  0.000000  0.000000  0.000000


  125033.184769  -28944.783204  0.000000
  -28944.783204  -62766.770741  0.000000
  0.000000  0.000000  0.000000


  135426.686375  -22637.347680  0.000000
  -22637.347680  -49128.506607  0.000000
  0.000000  0.000000  0.000000


  108628.651669  -26608.090137  0.000000
  -26608.090137  -58380.645885  0.000000
  0.000000  0.000000  0.000000


  113172.949977  -12799.939172  0.000000
  -12799.939172  -49172.754769  0.000000
  0.000000  0.000000  0.000000


  183929.244885  46540.458331  0.000000
  46540.458331  -40598.274116  0.000000
  0.000000  0.000000  0.000000


  116601.483757  -41901.554940  0.000000
  -41901.554940  -66595.068671  0.000000
  0.000000  0.000000  0.000000


  -173717.507871  -240476.552492  0.000000
  -240476.552492  49967.558263  0.000000
  0.000000  0.000000  0.000000


  28235.063894  -265472.643350  0.000000
  -265472.643350  -55871.676228  0.000000
  0.000000  0.000000  0.000000


  152411.871198  -74313.208533  0.000000
  -74313.208533  -64976.799932  0.000000
  0.000000  0.000000  0.000000


  117951.004693  -76651.725315  0.000000
  -76651.725315  -76538.045189  0.000000
  0.000000  0.000000  0.000000


  133643.822725  -87641.640909  0.000000
  -87641.640909  -82213.040016  0.000000
  0.000000  0.000000  0.000000


  131201.625903  -84748.984386  0.000000
  -84748.984386  -62461.066074  0.000000
  0.000000  0.000000  0.000000


  133653.115606  -66575.029946  0.000000
  -66575.029946  -61578.969310  0.000000
  0.000000  0.000000  0.000000


  111342.029864  -95178.626027  0.000000
  -95178.626027  -76528.230400  0.000000
  0.000000  0.000000  0.000000


  122564.142945  -101638.942346  0.000000
  -101638.942346  -59000.602863  0.000000
  0.000000  0.000000  0.000000


  99273.007578  -114118.814911  0.000000
  -114118.814911  -71935.850910  0.000000
  0.000000  0.000000  0.000000


  105210.145128  -118074.508563  0.000000
  -118074.508563  -54592.235859  0.000000
  0.000000  0.000000  0.000000


  95376.648858  -102310.203959  0.000000
  -102310.203959  -67894.851174  0.000000
  0.000000  0.000000  0.000000


  81902.368346  -131682.315406  0.000000
  -131682.315406  -65156.571004  0.000000
  0.000000  0.000000  0.000000


  81916.771673  -117269.395037  0.000000
  -117269.395037  -61717.704833  0.000000
  0.000000  0.000000  0.000000


  97471.283722  -104575.513932  0.000000
  -104575.513932  -54582.710289  0.000000
  0.000000  0.000000  0.000000


  78218.619393  -103578.918059  0.000000
  -103578.918059  -60365.510190  0.000000
  0.000000  0.000000  0.000000


  110547.843374  -90186.253978  0.000000
  -90186.253978  -59044.171501  0.000000
  0.000000  0.000000  0.000000


  78421.110884  -104928.538748  0.000000
  -104928.538748  -48476.292574  0.000000
  0.000000  0.000000  0.000000


  92106.146410  -92274.616348  0.000000
  -92274.616348  -53452.577721  0.000000
  0.000000  0.000000  0.000000


  110826.740948  -132321.779724  0.000000
  -132321.779724  -55501.853231  0.000000
  0.000000  0.000000  0.000000


  83646.453685  -132988.794855  0.000000
  -132988.794855  -46929.406297  0.000000
  0.000000  0.000000  0.000000


  80058.669099  -117989.820806  0.000000
  -117989.820806  -48299.889042  0.000000
  0.000000  0.000000  0.000000


  102710.762263  -85454.524287  0.000000
  -85454.524287  -71864.684913  0.000000
  0.000000  0.000000  0.000000


  119527.505380  -74608.714651  0.000000
  -74608.714651  -59030.432420  0.000000
  0.000000  0.000000  0.000000


  94029.849488  -74815.780237  0.000000
  -74815.780237  -67519.933810  0.000000
  0.000000  0.000000  0.000000


  106909.067459  -68238.243965  0.000000
  -68238.243965  -70673.386621  0.000000
  0.000000  0.000000  0.000000


  120186.625958  -59726.629206  0.000000
  -59726.629206  -58722.783527  0.000000
  0.000000  0.000000  0.000000


  102544.792848  -79815.658637  0.000000
  -79815.658637  -55780.113788  0.000000
  0.000000  0.000000  0.000000


  80729.613187  -80172.245402  0.000000
  -80172.245402  -63041.773271  0.000000
  0.000000  0.000000  0.000000


  87058.879316  -83809.643765  0.000000
  -83809.643765  -51294.967581  0.000000
  0.000000  0.000000  0.000000


  92074.836226  -71745.049274  0.000000
  -71745.049274  -54354.499038  0.000000
  0.000000  0.000000  0.000000


  95695.555080  -60977.728434  0.000000
  -60977.728434  -66963.266271  0.000000
  0.000000  0.000000  0.000000


  105582.355849  -52685.892345  0.000000
  -52685.892345  -67522.125933  0.000000
  0.000000  0.000000  0.000000


  117111.193867  -45603.926769  0.000000
  -45603.926769  -55941.468508  0.000000
  0.000000  0.000000  0.000000


  92930.160803  -47301.123889  0.000000
  -47301.123889  -64043.425617  0.000000
  0.000000  0.000000  0.000000


  104059.678477  -39258.740736  0.000000
  -39258.740736  -61849.041888  0.000000
  0.000000  0.000000  0.000000


  111764.548113  -34318.184594  0.000000
  -34318.184594  -51913.226590  0.000000
  0.000000  0.000000  0.000000


  126014.590215  -36043.960191  0.000000
  -36043.960191  -54090.804691  0.000000
  0.000000  0.000000  0.000000


  88868.658851  -36514.499752  0.000000
  -36514.499752  -59790.530029  0.000000
  0.000000  0.000000  0.000000


  95333.065237  -27433.318889  0.000000
  -27433.318889  -52811.652385  0.000000
  0.000000  0.000000  0.000000


  89743.128059  -89688.244182  0.000000
  -89688.244182  -65410.419688  0.000000
  0.000000  0.000000  0.000000


  106925.936564  -67311.323229  0.000000
  -67311.323229  -56747.123687  0.000000
  0.000000  0.000000  0.000000


  67558.325718  -82652.195388  0.000000
  -82652.195388  -57792.897278  0.000000
  0.000000  0.000000  0.000000


  84518.772140  -67541.634507  0.000000
  -67541.634507  -64219.848913  0.000000
  0.000000  0.000000  0.000000


  96172.592153  -60059.055424  0.000000
  -60059.055424  -54688.537978  0.000000
  0.000000  0.000000  0.000000


  77580.424209  -60127.676591  0.000000
  -60127.676591  -60886.215906  0.000000
  0.000000  0.000000  0.000000


  86888.383960  -55323.454296  0.000000
  -55323.454296  -63142.894268  0.000000
  0.000000  0.000000  0.000000


  97204.501882  -48568.735608  0.000000
  -48568.735608  -54310.531962  0.000000
  0.000000  0.000000  0.000000


  105911.068796  -54789.719761  0.000000
  -54789.719761  -56781.184586  0.000000
  0.000000  0.000000  0.000000


  77480.417107  -49132.286317  0.000000
  -49132.286317  -60911.268210  0.000000
  0.000000  0.000000  0.000000


  82701.556951  -42007.015731  0.000000
  -42007.015731  -61331.632118  0.000000
  0.000000  0.000000  0.000000


  88058.903539  -39041.405304  0.000000
  -39041.405304  -54873.729296  0.000000
  0.000000  0.000000  0.000000


  72357.741520  -91794.636635  0.000000
  -91794.636635  -59489.307255  0.000000
  0.000000  0.000000  0.000000


  77147.474773  -94843.089875  0.000000
  -94843.089875  -47260.636743  0.000000
  0.000000  0.000000  0.000000


  62007.145372  -103396.653236  0.000000
  -103396.653236  -53275.071679  0.000000
  0.000000  0.000000  0.000000


  62285.049438  -104543.345650  0.000000
  -104543.345650  -41304.112525  0.000000
  0.000000  0.000000  0.000000


  61488.258340  -93270.651212  0.000000
  -93270.651212  -51654.819856  0.000000
  0.000000  0.000000  0.000000


  47997.187848  -113466.149886  0.000000
  -113466.149886  -44984.955697  0.000000
  0.000000  0.000000  0.000000


  50115.999487  -102230.439315  0.000000
  -102230.439315  -44213.552682  0.000000
  0.000000  0.000000  0.000000


  59736.041580  -93636.731538  0.000000
  -93636.731538  -42047.518995  0.000000
  0.000000  0.000000  0.000000


  49527.190372  -91517.546485  0.000000
  -91517.546485  -44466.999655  0.000000
  0.000000  0.000000  0.000000


  46861.451205  -91326.172121  0.000000
  -91326.172121  -36768.279829  0.000000
  0.000000  0.000000  0.000000


  57720.408288  -84103.999415  0.000000
  -84103.999415  -43095.543503  0.000000
  0.000000  0.000000  0.000000


  71556.972621  -84946.294535  0.000000
  -84946.294535  -46830.500867  0.000000
  0.000000  0.000000  0.000000


  59070.566123  -83402.091127  0.000000
  -83402.091127  -50669.419039  0.000000
  0.000000  0.000000  0.000000


  65796.075273  -75527.922552  0.000000
  -75527.922552  -47287.463801  0.000000
  0.000000  0.000000  0.000000


  56718.829439  -74161.373944  0.000000
  -74161.373944  -49261.908344  0.000000
  0.000000  0.000000  0.000000


  80317.280947  -75216.478114  0.000000
  -75216.478114  -50732.040223  0.000000
  0.000000  0.000000  0.000000


  73730.916118  -71465.245831  0.000000
  -71465.245831  -60164.260174  0.000000
  0.000000  0.000000  0.000000


  56042.259476  -74886.043542  0.000000
  -74886.043542  -43716.146996  0.000000
  0.000000  0.000000  0.000000


  62033.104492  -67876.217274  0.000000
  -67876.217274  -50598.074310  0.000000
  0.000000  0.000000  0.000000


  118997.227673  -59051.011108  0.000000
  -59051.011108  -72985.890446  0.000000
  0.000000  0.000000  0.000000


  133345.640224  -50172.430394  0.000000
  -50172.430394  -58124.233763  0.000000
  0.000000  0.000000  0.000000


  86774.303925  -54415.111643  0.000000
  -54415.111643  -52783.460620  0.000000
  0.000000  0.000000  0.000000


  67802.466326  -54180.450015  0.000000
  -54180.450015  -58979.834628  0.000000
  0.000000  0.000000  0.000000


  45730.719813  -112819.486372  0.000000
  -112819.486372  -33547.799339  0.000000
  0.000000  0.000000  0.000000


  84176.991448  -63991.649604  0.000000
  -63991.649604  -51670.544690  0.000000
  0.000000  0.000000  0.000000


  67327.255583  -63178.612383  0.000000
  -63178.612383  -57280.850613  0.000000
  0.000000  0.000000  0.000000


  61818.495002  -116147.541133  0.000000
  -116147.541133  -40514.336383  0.000000
  0.000000  0.000000  0.000000


  46882.910713  -126221.867334  0.000000
  -126221.867334  -43880.329981  0.000000
  0.000000  0.000000  0.000000


  64104.688715  -115771.501653  0.000000
  -115771.501653  -52701.329264  0.000000
  0.000000  0.000000  0.000000


  59350.579810  -129433.720344  0.000000
  -129433.720344  -39895.638956  0.000000
  0.000000  0.000000  0.000000


  41031.077702  -124802.174463  0.000000
  -124802.174463  -32678.847024  0.000000
  0.000000  0.000000  0.000000


  44883.316822  -141668.405866  0.000000
  -141668.405866  -40257.329525  0.000000
  0.000000  0.000000  0.000000


  45931.576131  -101703.903422  0.000000
  -101703.903422  -35441.712596  0.000000
  0.000000  0.000000  0.000000


  83672.383848  -45414.913658  0.000000
  -45414.913658  -54019.410546  0.000000
  0.000000  0.000000  0.000000


  28710.520887  -134331.556325  0.000000
  -134331.556325  -30547.469333  0.000000
  0.000000  0.000000  0.000000


  32620.915863  -121327.406799  0.000000
  -121327.406799  -34348.008619  0.000000
  0.000000  0.000000  0.000000


  26202.414636  -119054.913741  0.000000
  -119054.913741  -24076.136087  0.000000
  0.000000  0.000000  0.000000


  14677.164358  -126687.824905  0.000000
  -126687.824905  -22846.056814  0.000000
  0.000000  0.000000  0.000000


  17984.954610  -115808.623523  0.000000
  -115808.623523  -25855.906870  0.000000
  0.000000  0.000000  0.000000


  102930.139887  -41383.784419  0.000000
  -41383.784419  -54615.120984  0.000000
  0.000000  0.000000  0.000000


  94017.193597  -29217.295184  0.000000
  -29217.295184  -50395.748093  0.000000
  0.000000  0.000000  0.000000


  75457.798182  -49179.014427  0.000000
  -49179.014427  -52122.278453  0.000000
  0.000000  0.000000  0.000000


  5329.294370  -122496.286504  0.000000
  -122496.286504  -13727.500584  0.000000
  0.000000  0.000000  0.000000


  -153287.547686  -231318.124242  0.000000
  -231318.124242  -16344.523706  0.000000
  0.000000  0.000000  0.000000


  -220759.391114  -193824.563963  0.000000
  -193824.563963  -49856.679519  0.000000
  0.000000  0.000000  0.000000


  -252294.229257  -209598.850178  0.000000
  -209598.850178  -11245.122288  0.000000
  0.000000  0.000000  0.000000


  -179987.509025  -231628.085744  0.000000
  -231628.085744  -43087.920683  0.000000
  0.000000  0.000000  0.000000


  -293998.381943  -179679.861036  0.000000
  -179679.861036  -28162.070570  0.000000
  0.000000  0.000000  0.000000


  -321752.965679  -168468.924105  0.000000
  -168468.924105  -67000.397587  0.000000
  0.000000  0.000000  0.000000


  161458.143001  -218270.848654  0.000000
  -218270.848654  -57946.371022  0.000000
  0.000000  0.000000  0.000000


  105354.498785  -129288.752680  0.000000
  -129288.752680  -74677.930123  0.000000
  0.000000  0.000000  0.000000


  135874.073110  -128746.055367  0.000000
  -128746.055367  -64486.262242  0.000000
  0.000000  0.000000  0.000000


  114401.265388  -147623.160756  0.000000
  -147623.160756  -74230.997927  0.000000
  0.000000  0.000000  0.000000


  140179.782337  -147850.335865  0.000000
  -147850.335865  -65992.753589  0.000000
  0.000000  0.000000  0.000000


  103341.839444  -147482.476645  0.000000
  -147482.476645  -60478.502556  0.000000
  0.000000  0.000000  0.000000


  85964.435688  -166596.815871  0.000000
  -166596.815871  -62883.760179  0.000000
  0.000000  0.000000  0.000000


  106266.395427  -166720.989786  0.000000
  -166720.989786  -56128.036149  0.000000
  0.000000  0.000000  0.000000


  85870.099064  -146552.073874  0.000000
  -146552.073874  -64704.373713  0.000000
  0.000000  0.000000  0.000000


  81686.794247  -146642.571181  0.000000
  -146642.571181  -47577.105364  0.000000
  0.000000  0.000000  0.000000


  57982.268819  -160614.304482  0.000000
  -160614.304482  -53907.978796  0.000000
  0.000000  0.000000  0.000000


  62016.306939  -145977.499886  0.000000
  -145977.499886  -52892.817623  0.000000
  0.000000  0.000000  0.000000


  57363.266174  -144619.883710  0.000000
  -144619.883710  -37249.426170  0.000000
  0.000000  0.000000  0.000000


  74795.012851  -162704.781577  0.000000
  -162704.781577  -48228.260501  0.000000
  0.000000  0.000000  0.000000


  51861.449617  -157917.653956  0.000000
  -157917.653956  -36400.323595  0.000000
  0.000000  0.000000  0.000000


  34815.722629  -155273.624751  0.000000
  -155273.624751  -41804.607597  0.000000
  0.000000  0.000000  0.000000


  29002.921070  -152234.153654  0.000000
  -152234.153654  -25424.161090  0.000000
  0.000000  0.000000  0.000000


  56607.796430  -180129.487440  0.000000
  -180129.487440  -47854.152528  0.000000
  0.000000  0.000000  0.000000


  8003.829311  -163012.242536  0.000000
  -163012.242536  -25997.215528  0.000000
  0.000000  0.000000  0.000000


  20692.244046  -148616.359213  0.000000
  -148616.359213  -27522.391994  0.000000
  0.000000  0.000000  0.000000


  33063.228992  -138397.805587  0.000000
  -138397.805587  -30102.873268  0.000000
  0.000000  0.000000  0.000000


  63139.768821  -181609.566210  0.000000
  -181609.566210  -46442.170599  0.000000
  0.000000  0.000000  0.000000


  34511.721612  -174354.571582  0.000000
  -174354.571582  -37231.859109  0.000000
  0.000000  0.000000  0.000000


  18559.068760  -167285.274601  0.000000
  -167285.274601  -21889.136669  0.000000
  0.000000  0.000000  0.000000


  30765.416952  -171023.114387  0.000000
  -171023.114387  -36759.888023  0.000000
  0.000000  0.000000  0.000000


  -5669.193568  -177327.679237  0.000000
  -177327.679237  -23768.457787  0.000000
  0.000000  0.000000  0.000000


  -825.411433  -181694.484460  0.000000
  -181694.484460  -19855.766515  0.000000
  0.000000  0.000000  0.000000


  -15370.503440  -170659.689514  0.000000
  -170659.689514  -8818.730891  0.000000
  0.000000  0.000000  0.000000


  -35993.113632  -180752.700995  0.000000
  -180752.700995  -6144.325083  0.000000
  0.000000  0.000000  0.000000


  -20144.076871  -166428.007346  0.000000
  -166428.007346  -10562.037696  0.000000
  0.000000  0.000000  0.000000


  -2079.350218  -156275.003380  0.000000
  -156275.003380  -12211.206093  0.000000
  0.000000  0.000000  0.000000


  -7344.048875  -152738.852599  0.000000
  -152738.852599  -14106.358300  0.000000
  0.000000  0.000000  0.000000


  -19393.790510  -145009.478400  0.000000
  -145009.478400  -3871.354308  0.000000
  0.000000  0.000000  0.000000


  7883.628122  -144095.948962  0.000000
  -144095.948962  -17011.523435  0.000000
  0.000000  0.000000  0.000000


  28147.178011  -107066.377691  0.000000
  -107066.377691  -28074.533136  0.000000
  0.000000  0.000000  0.000000


  -217506.617303  -227545.499778  0.000000
  -227545.499778  16677.320085  0.000000
  0.000000  0.000000  0.000000


  -262752.664976  -196732.541946  0.000000
  -196732.541946  2302.185228  0.000000
  0.000000  0.000000  0.000000


  -297515.509454  -213629.608416  0.000000
  -213629.608416  40353.375291  0.000000
  0.000000  0.000000  0.000000


  -266649.572890  -210993.971412  0.000000
  -210993.971412  49647.203001  0.000000
  0.000000  0.000000  0.000000


  -391245.918754  -172368.782755  0.000000
  -172368.782755  11494.159416  0.000000
  0.000000  0.000000  0.000000


  74892.850653  -58562.709788  0.000000
  -58562.709788  -49615.922957  0.000000
  0.000000  0.000000  0.000000


  17998.391076  -130394.750540  0.000000
  -130394.750540  -22117.799111  0.000000
  0.000000  0.000000  0.000000


  6985.427822  -138547.849533  0.000000
  -138547.849533  -16688.183599  0.000000
  0.000000  0.000000  0.000000


  14193.817645  -110390.713134  0.000000
  -110390.713134  -12800.037415  0.000000
  0.000000  0.000000  0.000000


  -13423.599787  -269149.588271  0.000000
  -269149.588271  -58261.348391  0.000000
  0.000000  0.000000  0.000000


  -48768.557696  -250699.997303  0.000000
  -250699.997303  -43325.016665  0.000000
  0.000000  0.000000  0.000000


  54358.390213  -227201.629737  0.000000
  -227201.629737  -58637.430236  0.000000
  0.000000  0.000000  0.000000


  36119.638277  -218854.848711  0.000000
  -218854.848711  -39915.872183  0.000000
  0.000000  0.000000  0.000000


  1956.941114  -238596.519883  0.000000
  -238596.519883  -43215.246624  0.000000
  0.000000  0.000000  0.000000


  26088.765080  -220650.135228  0.000000
  -220650.135228  -43629.681736  0.000000
  0.000000  0.000000  0.000000


  14482.595621  -235189.089744  0.000000
  -235189.089744  -39137.324687  0.000000
  0.000000  0.000000  0.000000


  -18167.218658  -255349.340877  0.000000
  -255349.340877  -45857.421350  0.000000
  0.000000  0.000000  0.000000


  -14291.133378  -243430.297023  0.000000
  -243430.297023  -44629.998888  0.000000
  0.000000  0.000000  0.000000


  -57066.941531  -237231.158785  0.000000
  -237231.158785  -25876.152702  0.000000
  0.000000  0.000000  0.000000


  -43776.814050  -261549.863238  0.000000
  -261549.863238  -47047.143472  0.000000
  0.000000  0.000000  0.000000


  -100345.760643  -251745.615889  0.000000
  -251745.615889  -28540.526666  0.000000
  0.000000  0.000000  0.000000


  -22293.173665  -225235.467749  0.000000
  -225235.467749  -26015.209812  0.000000
  0.000000  0.000000  0.000000


  -336.049783  -209723.273179  0.000000
  -209723.273179  -29837.080220  0.000000
  0.000000  0.000000  0.000000


  51814.858248  -200488.877080  0.000000
  -200488.877080  -43373.055318  0.000000
  0.000000  0.000000  0.000000


  40471.440974  -201057.546530  0.000000
  -201057.546530  -47157.031870  0.000000
  0.000000  0.000000  0.000000


  113535.821370  -23855.299827  0.000000
  -23855.299827  -47920.453258  0.000000
  0.000000  0.000000  0.000000


  -323053.392982  -192788.459480  0.000000
  -192788.459480  29482.859468  0.000000
  0.000000  0.000000  0.000000


  -404813.804729  -152491.064299  0.000000
  -152491.064299  -27539.936811  0.000000
  0.000000  0.000000  0.000000


  -422278.496750  -171109.040262  0.000000
  -171109.040262  32360.455406  0.000000
  0.000000  0.000000  0.000000


  -351915.407373  -184050.211587  0.000000
  -184050.211587  -19750.677428  0.000000
  0.000000  0.000000  0.000000


  -431554.753199  -138810.391708  0.000000
  -138810.391708  -84896.854670  0.000000
  0.000000  0.000000  0.000000


  -476629.310361  -158910.937505  0.000000
  -158910.937505  -26004.805296  0.000000
  0.000000  0.000000  0.000000


  -374923.106408  -184395.536708  0.000000
  -184395.536708  -74643.052076  0.000000
  0.000000  0.000000  0.000000


  -504784.814100  -127369.151399  0.000000
  -127369.151399  -42253.600078  0.000000
  0.000000  0.000000  0.000000


  -567122.307114  -142118.163678  0.000000
  -142118.163678  31612.787587  0.000000
  0.000000  0.000000  0.000000


  -508380.167233  -153865.571178  0.000000
  -153865.571178  55604.965924  0.000000
  0.000000  0.000000  0.000000


  -408991.238264  -183762.242674  0.000000
  -183762.242674  84677.492950  0.000000
  0.000000  0.000000  0.000000


  -605796.613575  -131060.912858  0.000000
  -131060.912858  70889.408682  0.000000
  0.000000  0.000000  0.000000


  -519705.594522  -142483.061701  0.000000
  -142483.061701  15618.613055  0.000000
  0.000000  0.000000  0.000000


  -479170.835770  -128146.907877  0.000000
  -128146.907877  -166809.351050  0.000000
  0.000000  0.000000  0.000000


  -356860.172388  -167942.670285  0.000000
  -167942.670285  -111174.440013  0.000000
  0.000000  0.000000  0.000000


  47619.427478  -72425.007495  0.000000
  -72425.007495  -45022.015761  0.000000
  0.000000  0.000000  0.000000


  -32411.898284  -186227.446637  0.000000
  -186227.446637  -4122.899670  0.000000
  0.000000  0.000000  0.000000


  -92458.426768  -245938.511883  0.000000
  -245938.511883  -31976.549891  0.000000
  0.000000  0.000000  0.000000


  65259.376799  -72897.215713  0.000000
  -72897.215713  -55347.708058  0.000000
  0.000000  0.000000  0.000000


  72961.200614  -68032.222216  0.000000
  -68032.222216  -50350.539368  0.000000
  0.000000  0.000000  0.000000


  351030.429480  -138604.493817  0.000000
  -138604.493817  30531.835684  0.000000
  0.000000  0.000000  0.000000


  431560.022509  -94805.462401  0.000000
  -94805.462401  84143.199490  0.000000
  0.000000  0.000000  0.000000


  378899.226660  -168014.445945  0.000000
  -168014.445945  85711.022335  0.000000
  0.000000  0.000000  0.000000


  436384.198106  -134863.665277  0.000000
  -134863.665277  40771.639429  0.000000
  0.000000  0.000000  0.000000


  432358.733392  -95150.966871  0.000000
  -95150.966871  80406.522975  0.000000
  0.000000  0.000000  0.000000


  523138.365969  -48695.251327  0.000000
  -48695.251327  118843.698281  0.000000
  0.000000  0.000000  0.000000


  179662.515620  -9152.133124  0.000000
  -9152.133124  -71265.013384  0.000000
  0.000000  0.000000  0.000000


  186178.403842  -185235.706940  0.000000
  -185235.706940  -69756.279240  0.000000
  0.000000  0.000000  0.000000


  -51083.205118  -170144.016683  0.000000
  -170144.016683  6026.723513  0.000000
  0.000000  0.000000  0.000000


  288627.293220  -32389.576512  0.000000
  -32389.576512  -101986.095104  0.000000
  0.000000  0.000000  0.000000


  -608699.651586  -131538.888788  0.000000
  -131538.888788  61907.317298  0.000000
  0.000000  0.000000  0.000000


  -122294.003940  -251217.425532  0.000000
  -251217.425532  -35182.451315  0.000000
  0.000000  0.000000  0.000000


  -92228.492934  -274076.270615  0.000000
  -274076.270615  -61075.611069  0.000000
  0.000000  0.000000  0.000000


  207983.087319  -114980.885553  0.000000
  -114980.885553  -75387.324924  0.000000
  0.000000  0.000000  0.000000


  63635.097624  -130577.983169  0.000000
  -130577.983169  -53440.652226  0.000000
  0.000000  0.000000  0.000000


  -546258.980322  -115933.996719  0.000000
  -115933.996719  -102189.068308  0.000000
  0.000000  0.000000  0.000000


  37868.693579  -98641.182171  0.000000
  -98641.182171  -36871.496503  0.000000
  0.000000  0.000000  0.000000


  32723.253902  -97387.029563  0.000000
  -97387.029563  -30315.595866  0.000000
  0.000000  0.000000  0.000000


  27570.361625  -102416.780382  0.000000
  -102416.780382  -24162.968431  0.000000
  0.000000  0.000000  0.000000


  27855.956846  -94668.379027  0.000000
  -94668.379027  -30865.992250  0.000000
  0.000000  0.000000  0.000000


  901548.833664  -451994.457059  0.000000
  -451994.457059  -18219.179952  0.000000
  0.000000  0.000000  0.000000


  48985.747689  -81669.961421  0.000000
  -81669.961421  -44796.867593  0.000000
  0.000000  0.000000  0.000000


  678013.040004  -154933.964410  0.000000
  -154933.964410  218294.476736  0.000000
  0.000000  0.000000  0.000000


  -766344.905392  -269710.475256  0.000000
  -269710.475256  183103.065750  0.000000
  0.000000  0.000000  0.000000


  -341481.932753  -100289.173947  0.000000
  -100289.173947  85208.701145  0.000000
  0.000000  0.000000  0.000000


  89282.220057  -19147.907556  0.000000
  -19147.907556  -43779.828364  0.000000
  0.000000  0.000000  0.000000


  -508897.439905  -166992.643362  0.000000
  -166992.643362  133299.006642  0.000000
  0.000000  0.000000  0.000000


  -522612.424363  -157588.145313  0.000000
  -157588.145313  60478.360243  0.000000
  0.000000  0.000000  0.000000


  12255.491657  -62919.439279  0.000000
  -62919.439279  -21360.967096  0.000000
  0.000000  0.000000  0.000000


  391811.011667  -302148.109165  0.000000
  -302148.109165  -51595.253205  0.000000
  0.000000  0.000000  0.000000


  62215.051945  -37953.987890  0.000000
  -37953.987890  -48950.160315  0.000000
  0.000000  0.000000  0.000000


  -198441.861041  -224030.964291  0.000000
  -224030.964291  12273.136725  0.000000
  0.000000  0.000000  0.000000


  -180353.305073  -225974.171479  0.000000
  -225974.171479  18517.883182  0.000000
  0.000000  0.000000  0.000000


  -43617.604536  -67265.836073  0.000000
  -67265.836073  17657.546949  0.000000
  0.000000  0.000000  0.000000


  55005.955592  -66483.415282  0.000000
  -66483.415282  -48453.810957  0.000000
  0.000000  0.000000  0.000000


  556188.146801  -68248.556070  0.000000
  -68248.556070  172753.681604  0.000000
  0.000000  0.000000  0.000000


  -18694.504957  -68420.649416  0.000000
  -68420.649416  2779.947841  0.000000
  0.000000  0.000000  0.000000


  -14990.898061  -70992.416291  0.000000
  -70992.416291  5532.131942  0.000000
  0.000000  0.000000  0.000000


  -15607.517807  -73339.902745  0.000000
  -73339.902745  -1295.999073  0.000000
  0.000000  0.000000  0.000000


  -21284.537766  -73087.021420  0.000000
  -73087.021420  6039.573449  0.000000
  0.000000  0.000000  0.000000


  -6884.515617  -71159.165413  0.000000
  -71159.165413  445.278763  0.000000
  0.000000  0.000000  0.000000


  -7558.747161  -72534.036020  0.000000
  -72534.036020  -6661.165051  0.000000
  0.000000  0.000000  0.000000


  -1.908543  -70271.256840  0.000000
  -70271.256840  -4338.584388  0.000000
  0.000000  0.000000  0.000000


  -5513.875079  -67514.204617  0.000000
  -67514.204617  -7788.982101  0.000000
  0.000000  0.000000  0.000000


  -2639.221875  -70437.136339  0.000000
  -70437.136339  -12451.355518  0.000000
  0.000000  0.000000  0.000000


  -1632.876392  -75020.443745  0.000000
  -75020.443745  -3707.365821  0.000000
  0.000000  0.000000  0.000000


  4357.913417  -64480.595060  0.000000
  -64480.595060  -11996.191257  0.000000
  0.000000  0.000000  0.000000


  6771.312962  -72863.835942  0.000000
  -72863.835942  -8677.520045  0.000000
  0.000000  0.000000  0.000000


  -8981.432556  -76391.296227  0.000000
  -76391.296227  2903.132091  0.000000
  0.000000  0.000000  0.000000


  -19586.137267  -76443.562710  0.000000
  -76443.562710  8265.172026  0.000000
  0.000000  0.000000  0.000000


  -23583.097208  -70141.940213  0.000000
  -70141.940213  10642.731099  0.000000
  0.000000  0.000000  0.000000


  -27447.398820  -70363.725120  0.000000
  -70363.725120  14047.702863  0.000000
  0.000000  0.000000  0.000000


  -2794.633540  -75961.587490  0.000000
  -75961.587490  -13357.812293  0.000000
  0.000000  0.000000  0.000000


  -10212.205917  -78505.995237  0.000000
  -78505.995237  -5980.336602  0.000000
  0.000000  0.000000  0.000000


  -3266.427635  -81655.098598  0.000000
  -81655.098598  -1993.640965  0.000000
  0.000000  0.000000  0.000000


  -5318.540367  -83025.119178  0.000000
  -83025.119178  -12331.957932  0.000000
  0.000000  0.000000  0.000000


  -12518.277252  -85125.013749  0.000000
  -85125.013749  -3692.545298  0.000000
  0.000000  0.000000  0.000000


  3808.354159  -72827.517072  0.000000
  -72827.517072  -17701.992106  0.000000
  0.000000  0.000000  0.000000


  6059.395173  -79488.379800  0.000000
  -79488.379800  -8307.384738  0.000000
  0.000000  0.000000  0.000000


  6744.253100  -86527.735716  0.000000
  -86527.735716  -6466.515498  0.000000
  0.000000  0.000000  0.000000


  -7215.879835  -88542.201361  0.000000
  -88542.201361  -360.954766  0.000000
  0.000000  0.000000  0.000000


  -13534.173526  -82662.753077  0.000000
  -82662.753077  4605.947746  0.000000
  0.000000  0.000000  0.000000


  -24078.890313  -85527.756874  0.000000
  -85527.756874  2946.250808  0.000000
  0.000000  0.000000  0.000000


  -17011.126437  -89183.327752  0.000000
  -89183.327752  7783.062239  0.000000
  0.000000  0.000000  0.000000


  -24082.933184  -82281.410644  0.000000
  -82281.410644  11473.999622  0.000000
  0.000000  0.000000  0.000000


  -18678.950861  -79122.012082  0.000000
  -79122.012082  804.266553  0.000000
  0.000000  0.000000  0.000000


  15852.699925  -75159.828726  0.000000
  -75159.828726  -12924.672574  0.000000
  0.000000  0.000000  0.000000


  -17959.346912  -92510.610053  0.000000
  -92510.610053  -2594.293139  0.000000
  0.000000  0.000000  0.000000


  -9656.202782  -96449.761260  0.000000
  -96449.761260  2360.507375  0.000000
  0.000000  0.000000  0.000000


  -11583.848232  -98941.910769  0.000000
  -98941.910769  -10207.143411  0.000000
  0.000000  0.000000  0.000000


  -21627.612649  -100574.278063  0.000000
  -100574.278063  782.089931  0.000000
  0.000000  0.000000  0.000000


  2094.955738  -94686.065371  0.000000
  -94686.065371  -5514.913241  0.000000
  0.000000  0.000000  0.000000


  98.264909  -95902.181517  0.000000
  -95902.181517  -19398.711294  0.000000
  0.000000  0.000000  0.000000


  2058.918493  -102778.554955  0.000000
  -102778.554955  -3671.961174  0.000000
  0.000000  0.000000  0.000000


  -23908.719306  -96313.642353  0.000000
  -96313.642353  9636.808059  0.000000
  0.000000  0.000000  0.000000


  15555.152062  -99926.164126  0.000000
  -99926.164126  -12707.195660  0.000000
  0.000000  0.000000  0.000000


  -15276.702928  -104399.714708  0.000000
  -104399.714708  4807.650351  0.000000
  0.000000  0.000000  0.000000


  16176.031787  -89906.321792  0.000000
  -89906.321792  -13929.342006  0.000000
  0.000000  0.000000  0.000000


  -27216.819310  -78990.832482  0.000000
  -78990.832482  8205.443910  0.000000
  0.000000  0.000000  0.000000


  -7191.966578  -90907.654766  0.000000
  -90907.654766  -10567.585269  0.000000
  0.000000  0.000000  0.000000


  -28715.638540  -92194.226058  0.000000
  -92194.226058  6152.739372  0.000000
  0.000000  0.000000  0.000000


  -29858.719751  -88122.523266  0.000000
  -88122.523266  14641.903960  0.000000
  0.000000  0.000000  0.000000


  -40655.973712  -90620.649439  0.000000
  -90620.649439  14579.077596  0.000000
  0.000000  0.000000  0.000000


  -33265.200066  -84431.758791  0.000000
  -84431.758791  11689.014648  0.000000
  0.000000  0.000000  0.000000


  -35051.488019  -79766.262434  0.000000
  -79766.262434  18353.106052  0.000000
  0.000000  0.000000  0.000000


  -44516.448166  -81674.013193  0.000000
  -81674.013193  19070.831797  0.000000
  0.000000  0.000000  0.000000


  -37746.397415  -76519.151485  0.000000
  -76519.151485  15634.552819  0.000000
  0.000000  0.000000  0.000000


  -36354.880125  -94854.385508  0.000000
  -94854.385508  19165.085998  0.000000
  0.000000  0.000000  0.000000


  -41874.373396  -85596.113737  0.000000
  -85596.113737  23041.814627  0.000000
  0.000000  0.000000  0.000000


  -50146.823389  -87335.911948  0.000000
  -87335.911948  23521.212472  0.000000
  0.000000  0.000000  0.000000


  -50616.687405  -91066.780101  0.000000
  -91066.780101  26564.439256  0.000000
  0.000000  0.000000  0.000000


  -55356.327979  -79132.767111  0.000000
  -79132.767111  25365.532099  0.000000
  0.000000  0.000000  0.000000


  -44898.015925  -76773.748226  0.000000
  -76773.748226  29590.384215  0.000000
  0.000000  0.000000  0.000000


  3048.360519  -86564.147117  0.000000
  -86564.147117  -19837.599761  0.000000
  0.000000  0.000000  0.000000


  13680.917562  -69314.131195  0.000000
  -69314.131195  -13551.798138  0.000000
  0.000000  0.000000  0.000000


  -344090.769926  -163948.443553  0.000000
  -163948.443553  69818.341917  0.000000
  0.000000  0.000000  0.000000


  -131777.436626  -46630.660996  0.000000
  -46630.660996  63682.525092  0.000000
  0.000000  0.000000  0.000000


  -808315.004056  -74078.676076  0.000000
  -74078.676076  187851.301747  0.000000
  0.000000  0.000000  0.000000


  -154189.109062  -41982.299408  0.000000
  -41982.299408  71018.905944  0.000000
  0.000000  0.000000  0.000000


  68370.294737  -35032.722333  0.000000
  -35032.722333  -50803.816128  0.000000
  0.000000  0.000000  0.000000


  61961.957965  -39909.436268  0.000000
  -39909.436268  -55995.620812  0.000000
  0.000000  0.000000  0.000000


  56185.578749  -41920.853848  0.000000
  -41920.853848  -53023.026480  0.000000
  0.000000  0.000000  0.000000


  38476.835170  -88782.370800  0.000000
  -88782.370800  -38583.759271  0.000000
  0.000000  0.000000  0.000000


  -912370.801355  -61524.928033  0.000000
  -61524.928033  214727.741377  0.000000
  0.000000  0.000000  0.000000


  -34360.451621  -157548.112426  0.000000
  -157548.112426  1562.163171  0.000000
  0.000000  0.000000  0.000000


  83717.182154  -22688.099593  0.000000
  -22688.099593  -49608.507997  0.000000
  0.000000  0.000000  0.000000


  81737.583716  -30563.239982  0.000000
  -30563.239982  -54026.538989  0.000000
  0.000000  0.000000  0.000000


  69621.964895  -24567.595338  0.000000
  -24567.595338  -54335.598672  0.000000
  0.000000  0.000000  0.000000


  5933.485813  -66158.314537  0.000000
  -66158.314537  -17419.340165  0.000000
  0.000000  0.000000  0.000000


  -97499.966673  -54499.531377  0.000000
  -54499.531377  48013.469420  0.000000
  0.000000  0.000000  0.000000


  148649.019794  73881.387562  0.000000
  73881.387562  23899.444332  0.000000
  0.000000  0.000000  0.000000


  -615622.127568  -146987.697192  0.000000
  -146987.697192  115908.881342  0.000000
  0.000000  0.000000  0.000000


  -23314.080790  -226752.104433  0.000000
  -226752.104433  -26411.847258  0.000000
  0.000000  0.000000  0.000000


  -14029.992983  -109004.775811  0.000000
  -109004.775811  -7552.587950  0.000000
  0.000000  0.000000  0.000000


  152415.788661  34319.917897  0.000000
  34319.917897  -31147.110491  0.000000
  0.000000  0.000000  0.000000


  128650.746352  -10715.016349  0.000000
  -10715.016349  -54643.385562  0.000000
  0.000000  0.000000  0.000000


  -273580.782306  -210545.147700  0.000000
  -210545.147700  -49405.848085  0.000000
  0.000000  0.000000  0.000000


  -249868.184121  -193921.038941  0.000000
  -193921.038941  -89420.445916  0.000000
  0.000000  0.000000  0.000000


  -217426.009654  -240694.139807  0.000000
  -240694.139807  -73302.381317  0.000000
  0.000000  0.000000  0.000000


  373594.219807  156518.673716  0.000000
  156518.673716  72589.438458  0.000000
  0.000000  0.000000  0.000000


  233462.203570  53423.175169  0.000000
  53423.175169  -22540.737931  0.000000
  0.000000  0.000000  0.000000


  -34243.057659  -152797.978444  0.000000
  -152797.978444  1384.452524  0.000000
  0.000000  0.000000  0.000000


  -49183.996291  -143425.560646  0.000000
  -143425.560646  10213.697568  0.000000
  0.000000  0.000000  0.000000


  -58503.403355  -148197.531095  0.000000
  -148197.531095  19019.557374  0.000000
  0.000000  0.000000  0.000000


  -41266.721547  -138481.745991  0.000000
  -138481.745991  12621.965396  0.000000
  0.000000  0.000000  0.000000


  -48852.048074  -97941.282275  0.000000
  -97941.282275  18040.278985  0.000000
  0.000000  0.000000  0.000000


  -44083.334646  -101853.426132  0.000000
  -101853.426132  22502.729915  0.000000
  0.000000  0.000000  0.000000


  -43195.892492  -108147.172004  0.000000
  -108147.172004  12090.771849  0.000000
  0.000000  0.000000  0.000000


  -58926.261750  -105735.655986  0.000000
  -105735.655986  20373.876773  0.000000
  0.000000  0.000000  0.000000


  -539105.576117  -176680.201296  0.000000
  -176680.201296  92087.639303  0.000000
  0.000000  0.000000  0.000000


  36111.091927  -109911.215211  0.000000
  -109911.215211  -36359.924891  0.000000
  0.000000  0.000000  0.000000


  753606.648208  64263.968144  0.000000
  64263.968144  49768.343430  0.000000
  0.000000  0.000000  0.000000


  67636.012851  -44797.861441  0.000000
  -44797.861441  -59403.348782  0.000000
  0.000000  0.000000  0.000000


  -342712.943981  -234772.829589  0.000000
  -234772.829589  -68380.126468  0.000000
  0.000000  0.000000  0.000000


  184005.274825  41157.825419  0.000000
  41157.825419  -21010.048800  0.000000
  0.000000  0.000000  0.000000


  -158.258827  -208589.270365  0.000000
  -208589.270365  -29521.199559  0.000000
  0.000000  0.000000  0.000000


  117633.133059  9098.674900  0.000000
  9098.674900  -24412.595732  0.000000
  0.000000  0.000000  0.000000


  -162548.543684  -262837.762964  0.000000
  -262837.762964  -74727.345388  0.000000
  0.000000  0.000000  0.000000


  -399163.992249  -214722.391782  0.000000
  -214722.391782  -153980.316322  0.000000
  0.000000  0.000000  0.000000


  -61888.296696  -93259.226849  0.000000
  -93259.226849  27458.229336  0.000000
  0.000000  0.000000  0.000000


  32408.752649  -239901.034074  0.000000
  -239901.034074  -51684.643348  0.000000
  0.000000  0.000000  0.000000


  -39260.652099  -235333.069008  0.000000
  -235333.069008  -19557.108568  0.000000
  0.000000  0.000000  0.000000


  -35723.153943  -100235.748535  0.000000
  -100235.748535  9466.009301  0.000000
  0.000000  0.000000  0.000000


  -27845.216419  -104255.270125  0.000000
  -104255.270125  14346.694752  0.000000
  0.000000  0.000000  0.000000


  -29506.257172  -109375.306103  0.000000
  -109375.306103  1957.784704  0.000000
  0.000000  0.000000  0.000000


  -20400.897083  -113220.361421  0.000000
  -113220.361421  6608.741141  0.000000
  0.000000  0.000000  0.000000


  -19121.987112  -119201.322362  0.000000
  -119201.322362  -4906.072285  0.000000
  0.000000  0.000000  0.000000


  -32859.398698  -118530.682212  0.000000
  -118530.682212  7668.174927  0.000000
  0.000000  0.000000  0.000000


  -15019.917490  -123269.840664  0.000000
  -123269.840664  -3259.970601  0.000000
  0.000000  0.000000  0.000000


  -43729.208104  -122601.470381  0.000000
  -122601.470381  5450.268251  0.000000
  0.000000  0.000000  0.000000


  -40466.113006  -123753.717681  0.000000
  -123753.717681  21968.426977  0.000000
  0.000000  0.000000  0.000000


  -58019.968245  -128240.546354  0.000000
  -128240.546354  14871.644318  0.000000
  0.000000  0.000000  0.000000


  -55592.953298  -118434.054670  0.000000
  -118434.054670  13706.648804  0.000000
  0.000000  0.000000  0.000000


  -39636.671307  -112816.394453  0.000000
  -112816.394453  16934.212419  0.000000
  0.000000  0.000000  0.000000


  -5471.308470  -129885.847387  0.000000
  -129885.847387  -10215.308188  0.000000
  0.000000  0.000000  0.000000


  -9440.679918  -133647.027223  0.000000
  -133647.027223  -11657.944109  0.000000
  0.000000  0.000000  0.000000


  -12433.663168  -140408.268740  0.000000
  -140408.268740  -1827.909461  0.000000
  0.000000  0.000000  0.000000


  -23807.192556  -128200.676899  0.000000
  -128200.676899  4499.928345  0.000000
  0.000000  0.000000  0.000000


  168739.794746  59581.574171  0.000000
  59581.574171  -3626.916679  0.000000
  0.000000  0.000000  0.000000


  182510.109765  71530.837767  0.000000
  71530.837767  -14500.240088  0.000000
  0.000000  0.000000  0.000000


  142669.543762  54444.513115  0.000000
  54444.513115  -13107.037557  0.000000
  0.000000  0.000000  0.000000


  25294.658039  -95017.830380  0.000000
  -95017.830380  -20229.475473  0.000000
  0.000000  0.000000  0.000000


  11262.853684  -99936.277514  0.000000
  -99936.277514  -25737.756400  0.000000
  0.000000  0.000000  0.000000


  124941.731298  19871.618300  0.000000
  19871.618300  -29146.693390  0.000000
  0.000000  0.000000  0.000000


  140854.719918  4721.977361  0.000000
  4721.977361  -49212.207089  0.000000
  0.000000  0.000000  0.000000


  168828.594958  11734.867264  0.000000
  11734.867264  -41532.769974  0.000000
  0.000000  0.000000  0.000000


  348294.103600  98829.196329  0.000000
  98829.196329  5039.143626  0.000000
  0.000000  0.000000  0.000000


  111532.452950  -168948.843974  0.000000
  -168948.843974  -75211.102146  0.000000
  0.000000  0.000000  0.000000


  35093.286468  -88261.366150  0.000000
  -88261.366150  -31546.982494  0.000000
  0.000000  0.000000  0.000000


  29546.150908  -85293.251979  0.000000
  -85293.251979  -32267.804454  0.000000
  0.000000  0.000000  0.000000


  26977.510857  -85134.089357  0.000000
  -85134.089357  -24997.399694  0.000000
  0.000000  0.000000  0.000000


  36107.549037  -79579.389815  0.000000
  -79579.389815  -32464.876970  0.000000
  0.000000  0.000000  0.000000


  476670.103749  -38.921015  0.000000
  -38.921015  -47409.692339  0.000000
  0.000000  0.000000  0.000000


  488609.465795  96320.931606  0.000000
  96320.931606  4676.079748  0.000000
  0.000000  0.000000  0.000000


  75642.130127  -39378.324813  0.000000
  -39378.324813  -57529.425254  0.000000
  0.000000  0.000000  0.000000


  16200.366422  -89896.835542  0.000000
  -89896.835542  -24496.504432  0.000000
  0.000000  0.000000  0.000000


  313674.209395  68885.676683  0.000000
  68885.676683  -16458.219789  0.000000
  0.000000  0.000000  0.000000


  242409.270496  81178.706893  0.000000
  81178.706893  6426.238057  0.000000
  0.000000  0.000000  0.000000


  -302326.948270  -227922.566939  0.000000
  -227922.566939  -105961.264876  0.000000
  0.000000  0.000000  0.000000


  102303.709104  -1475.155609  0.000000
  -1475.155609  -27447.409088  0.000000
  0.000000  0.000000  0.000000


  87148.806914  -9678.008179  0.000000
  -9678.008179  -38937.359917  0.000000
  0.000000  0.000000  0.000000


  -517036.051571  -158340.608474  0.000000
  -158340.608474  -78918.696737  0.000000
  0.000000  0.000000  0.000000


  -398619.797495  -194341.985628  0.000000
  -194341.985628  -146255.129038  0.000000
  0.000000  0.000000  0.000000


  -343728.987164  -239665.429174  0.000000
  -239665.429174  -109022.168192  0.000000
  0.000000  0.000000  0.000000


  -463413.696111  -205797.905818  0.000000
  -205797.905818  -116856.411866  0.000000
  0.000000  0.000000  0.000000


  -299665.561299  -221464.286878  0.000000
  -221464.286878  -109019.586212  0.000000
  0.000000  0.000000  0.000000


  -247045.285020  -255435.269402  0.000000
  -255435.269402  -93344.542658  0.000000
  0.000000  0.000000  0.000000


  -271747.901788  -205945.544282  0.000000
  -205945.544282  -102219.939682  0.000000
  0.000000  0.000000  0.000000


  -213851.078834  -234978.452044  0.000000
  -234978.452044  -84640.006913  0.000000
  0.000000  0.000000  0.000000


  -274661.204790  -227461.770426  0.000000
  -227461.770426  26918.355272  0.000000
  0.000000  0.000000  0.000000


  -237473.889089  -201246.376195  0.000000
  -201246.376195  43125.612288  0.000000
  0.000000  0.000000  0.000000


  -100106.084343  -256728.948724  0.000000
  -256728.948724  -30512.349655  0.000000
  0.000000  0.000000  0.000000


  -372282.904675  -194534.010223  0.000000
  -194534.010223  -121586.364375  0.000000
  0.000000  0.000000  0.000000


  45534.128551  -56987.784071  0.000000
  -56987.784071  -36720.454237  0.000000
  0.000000  0.000000  0.000000


  60716.304986  -59292.528720  0.000000
  -59292.528720  -45262.238452  0.000000
  0.000000  0.000000  0.000000


  -232111.459322  -78984.889739  0.000000
  -78984.889739  90870.316718  0.000000
  0.000000  0.000000  0.000000


  -24897.210804  -65245.243049  0.000000
  -65245.243049  16135.914904  0.000000
  0.000000  0.000000  0.000000


  -433.989756  -106218.570427  0.000000
  -106218.570427  -18555.834886  0.000000
  0.000000  0.000000  0.000000


  -229736.785296  -239284.997849  0.000000
  -239284.997849  4838.088229  0.000000
  0.000000  0.000000  0.000000


  -50510.449378  -166281.772560  0.000000
  -166281.772560  5735.911419  0.000000
  0.000000  0.000000  0.000000


  -27791.443143  -196709.860115  0.000000
  -196709.860115  -21959.969382  0.000000
  0.000000  0.000000  0.000000


  -29387.300540  -207140.122822  0.000000
  -207140.122822  -5483.535127  0.000000
  0.000000  0.000000  0.000000


  -16608.412471  -197888.062861  0.000000
  -197888.062861  -17985.452330  0.000000
  0.000000  0.000000  0.000000


  18803.735715  -190420.961009  0.000000
  -190420.961009  -33836.869119  0.000000
  0.000000  0.000000  0.000000


  -56831.646074  -210344.333027  0.000000
  -210344.333027  -15386.643634  0.000000
  0.000000  0.000000  0.000000


  -64547.611419  -202271.726873  0.000000
  -202271.726873  -9045.184864  0.000000
  0.000000  0.000000  0.000000


  22629.868632  -191416.019457  0.000000
  -191416.019457  -32437.316527  0.000000
  0.000000  0.000000  0.000000


  -223813.700447  -196144.796694  0.000000
  -196144.796694  33125.941671  0.000000
  0.000000  0.000000  0.000000


  34815.409072  -57432.237853  0.000000
  -57432.237853  -32742.894284  0.000000
  0.000000  0.000000  0.000000


  -74002.366490  -181626.542792  0.000000
  -181626.542792  6132.682162  0.000000
  0.000000  0.000000  0.000000


  -65280.121095  -185843.911880  0.000000
  -185843.911880  10866.560009  0.000000
  0.000000  0.000000  0.000000


  -96516.352430  -164897.268301  0.000000
  -164897.268301  20663.560994  0.000000
  0.000000  0.000000  0.000000


  -130957.834449  -63408.709597  0.000000
  -63408.709597  62342.012171  0.000000
  0.000000  0.000000  0.000000


  -65691.881731  -72406.405517  0.000000
  -72406.405517  36501.468088  0.000000
  0.000000  0.000000  0.000000


  77430.601606  -30402.264901  0.000000
  -30402.264901  -55117.802610  0.000000
  0.000000  0.000000  0.000000


  -63892.257996  -85738.037764  0.000000
  -85738.037764  37170.842328  0.000000
  0.000000  0.000000  0.000000


  -76174.261044  -85218.354693  0.000000
  -85218.354693  36944.497349  0.000000
  0.000000  0.000000  0.000000


  -159849.304707  -248944.838247  0.000000
  -248944.838247  -58481.099540  0.000000
  0.000000  0.000000  0.000000


  46238.794936  -73251.857043  0.000000
  -73251.857043  -37638.794334  0.000000
  0.000000  0.000000  0.000000


  -55423.212083  -110606.074311  0.000000
  -110606.074311  25275.663845  0.000000
  0.000000  0.000000  0.000000


  -82807.920570  -77224.074132  0.000000
  -77224.074132  40714.719294  0.000000
  0.000000  0.000000  0.000000


  56694.527214  -42802.601940  0.000000
  -42802.601940  -50560.865310  0.000000
  0.000000  0.000000  0.000000


  -2220.949579  -118638.395281  0.000000
  -118638.395281  -15676.530036  0.000000
  0.000000  0.000000  0.000000


  30473.050585  -76523.024066  0.000000
  -76523.024066  -33144.014697  0.000000
  0.000000  0.000000  0.000000


  27535.332455  -75978.113493  0.000000
  -75978.113493  -28456.568359  0.000000
  0.000000  0.000000  0.000000


  36163.103178  -71589.126083  0.000000
  -71589.126083  -33275.350929  0.000000
  0.000000  0.000000  0.000000


  22210.303711  -66980.756570  0.000000
  -66980.756570  -22397.092655  0.000000
  0.000000  0.000000  0.000000


  18273.347363  -70289.904634  0.000000
  -70289.904634  -28640.114275  0.000000
  0.000000  0.000000  0.000000


  17273.947681  -65597.425475  0.000000
  -65597.425475  -20174.289858  0.000000
  0.000000  0.000000  0.000000


  93233.311858  -17154.533955  0.000000
  -17154.533955  -46296.622732  0.000000
  0.000000  0.000000  0.000000


  -160393.074673  -215863.575325  0.000000
  -215863.575325  19729.076636  0.000000
  0.000000  0.000000  0.000000


  -143165.004399  -212624.754305  0.000000
  -212624.754305  25024.403773  0.000000
  0.000000  0.000000  0.000000


  -129461.661574  -237336.006106  0.000000
  -237336.006106  -1276.298331  0.000000
  0.000000  0.000000  0.000000


  -109909.108881  -228899.246978  0.000000
  -228899.246978  -15646.077535  0.000000
  0.000000  0.000000  0.000000


  114573.243193  571.525277  0.000000
  571.525277  -46633.606420  0.000000
  0.000000  0.000000  0.000000


  147093.210746  8771.363688  0.000000
  8771.363688  -31440.045108  0.000000
  0.000000  0.000000  0.000000


  -129332.755098  -42962.232244  0.000000
  -42962.232244  70477.335212  0.000000
  0.000000  0.000000  0.000000


  -60956.314039  -97776.962850  0.000000
  -97776.962850  31481.215321  0.000000
  0.000000  0.000000  0.000000


  -74218.265928  -100651.301610  0.000000
  -100651.301610  31600.858921  0.000000
  0.000000  0.000000  0.000000


  -73922.234563  -104175.034702  0.000000
  -104175.034702  34628.170780  0.000000
  0.000000  0.000000  0.000000


  -77401.333288  -90493.161954  0.000000
  -90493.161954  43572.149984  0.000000
  0.000000  0.000000  0.000000


  -68973.886115  -114757.719056  0.000000
  -114757.719056  28683.157463  0.000000
  0.000000  0.000000  0.000000


  -75239.553646  -119967.219632  0.000000
  -119967.219632  27426.685446  0.000000
  0.000000  0.000000  0.000000


  -59545.072541  -130790.626415  0.000000
  -130790.626415  28530.768781  0.000000
  0.000000  0.000000  0.000000


  -77735.633030  -136220.776824  0.000000
  -136220.776824  21086.398830  0.000000
  0.000000  0.000000  0.000000


  -80348.352802  -121950.537170  0.000000
  -121950.537170  37859.159007  0.000000
  0.000000  0.000000  0.000000


  -85814.085064  -105506.391318  0.000000
  -105506.391318  39039.522782  0.000000
  0.000000  0.000000  0.000000


  -92594.959058  -126418.540422  0.000000
  -126418.540422  34462.910239  0.000000
  0.000000  0.000000  0.000000


  -96554.017443  -110894.764580  0.000000
  -110894.764580  40878.685165  0.000000
  0.000000  0.000000  0.000000


  -99451.587079  -110630.970064  0.000000
  -110630.970064  48457.825882  0.000000
  0.000000  0.000000  0.000000


  -113596.726400  -113947.210531  0.000000
  -113947.210531  47310.876097  0.000000
  0.000000  0.000000  0.000000


  -116416.199180  -98707.623436  0.000000
  -98707.623436  44957.672475  0.000000
  0.000000  0.000000  0.000000


  -104592.516015  -132111.894253  0.000000
  -132111.894253  38717.566582  0.000000
  0.000000  0.000000  0.000000


  -93926.121898  -137994.334326  0.000000
  -137994.334326  44587.712074  0.000000
  0.000000  0.000000  0.000000


  -122388.992502  -114342.759565  0.000000
  -114342.759565  55174.604577  0.000000
  0.000000  0.000000  0.000000


  -110376.418567  -94659.439203  0.000000
  -94659.439203  60194.627445  0.000000
  0.000000  0.000000  0.000000


  -93580.457592  -92470.894442  0.000000
  -92470.894442  51622.118367  0.000000
  0.000000  0.000000  0.000000


  -136863.370204  -118016.098472  0.000000
  -118016.098472  53899.022847  0.000000
  0.000000  0.000000  0.000000


  -135747.835648  -97958.634667  0.000000
  -97958.634667  52881.600523  0.000000
  0.000000  0.000000  0.000000


  -127220.799944  -82692.633063  0.000000
  -82692.633063  52416.857917  0.000000
  0.000000  0.000000  0.000000


  -76300.669850  -137255.300896  0.000000
  -137255.300896  38025.089598  0.000000
  0.000000  0.000000  0.000000


  -103513.808218  -143791.388294  0.000000
  -143791.388294  27516.744698  0.000000
  0.000000  0.000000  0.000000


  -146295.037962  -118843.070102  0.000000
  -118843.070102  60397.306777  0.000000
  0.000000  0.000000  0.000000


  -99654.749379  -77753.508262  0.000000
  -77753.508262  60207.472599  0.000000
  0.000000  0.000000  0.000000


  -163219.646583  -125355.040357  0.000000
  -125355.040357  60469.109751  0.000000
  0.000000  0.000000  0.000000


  -159492.514539  -100552.743344  0.000000
  -100552.743344  62444.586145  0.000000
  0.000000  0.000000  0.000000


  -121990.701283  -141334.951640  0.000000
  -141334.951640  44754.637067  0.000000
  0.000000  0.000000  0.000000


  -114850.476206  -75630.110209  0.000000
  -75630.110209  70459.317921  0.000000
  0.000000  0.000000  0.000000


  -149652.965271  -80110.792296  0.000000
  -80110.792296  58275.136498  0.000000
  0.000000  0.000000  0.000000


  -125166.597499  -65530.316953  0.000000
  -65530.316953  58058.312179  0.000000
  0.000000  0.000000  0.000000


  -197767.546702  -70192.205826  0.000000
  -70192.205826  84479.473928  0.000000
  0.000000  0.000000  0.000000


  -187412.618437  -68261.996672  0.000000
  -68261.996672  78056.775098  0.000000
  0.000000  0.000000  0.000000


  -205811.871016  -99250.364657  0.000000
  -99250.364657  81526.992180  0.000000
  0.000000  0.000000  0.000000


  -69538.753418  -153853.543081  0.000000
  -153853.543081  15752.119651  0.000000
  0.000000  0.000000  0.000000


  -9231.372263  -261349.136174  0.000000
  -261349.136174  16198.515523  0.000000
  0.000000  0.000000  0.000000


  53311.037497  -66784.510552  0.000000
  -66784.510552  -44237.759434  0.000000
  0.000000  0.000000  0.000000


  -283744.997097  -88462.527153  0.000000
  -88462.527153  99402.459677  0.000000
  0.000000  0.000000  0.000000


  49263.979351  -37496.225583  0.000000
  -37496.225583  -53015.594179  0.000000
  0.000000  0.000000  0.000000


  38003.287965  -79412.911903  0.000000
  -79412.911903  -39349.494916  0.000000
  0.000000  0.000000  0.000000


  31818.678925  -63107.951443  0.000000
  -63107.951443  -29223.030835  0.000000
  0.000000  0.000000  0.000000


  28892.027786  -60052.667465  0.000000
  -60052.667465  -36405.826705  0.000000
  0.000000  0.000000  0.000000


  33225.426583  -62189.053417  0.000000
  -62189.053417  -35904.629063  0.000000
  0.000000  0.000000  0.000000


  36189.344254  -68716.802419  0.000000
  -68716.802419  -32224.093668  0.000000
  0.000000  0.000000  0.000000


  25404.032548  -66931.544133  0.000000
  -66931.544133  -33933.527563  0.000000
  0.000000  0.000000  0.000000


  118593.626590  12339.653716  0.000000
  12339.653716  -27646.810053  0.000000
  0.000000  0.000000  0.000000


  -288661.660334  -161713.230000  0.000000
  -161713.230000  47923.392891  0.000000
  0.000000  0.000000  0.000000


  60888.199661  -48773.786065  0.000000
  -48773.786065  -56183.403302  0.000000
  0.000000  0.000000  0.000000


  46699.768541  -82009.368374  0.000000
  -82009.368374  -37507.292800  0.000000
  0.000000  0.000000  0.000000


  13901.592395  -76197.681097  0.000000
  -76197.681097  -20105.598083  0.000000
  0.000000  0.000000  0.000000


  12862.742543  -79637.380196  0.000000
  -79637.380196  -23500.185415  0.000000
  0.000000  0.000000  0.000000


  -101491.549933  -78778.429626  0.000000
  -78778.429626  46199.198560  0.000000
  0.000000  0.000000  0.000000


  3680.742252  -79431.413636  0.000000
  -79431.413636  -19972.904059  0.000000
  0.000000  0.000000  0.000000


  -33723.762541  -134514.460145  0.000000
  -134514.460145  957.701119  0.000000
  0.000000  0.000000  0.000000


  51951.910246  -54210.007594  0.000000
  -54210.007594  -42301.480967  0.000000
  0.000000  0.000000  0.000000


  -97236.177589  -222516.489738  0.000000
  -222516.489738  7271.927141  0.000000
  0.000000  0.000000  0.000000


  -142517.807039  -263343.354146  0.000000
  -263343.354146  54591.890724  0.000000
  0.000000  0.000000  0.000000


  54770.573670  -49650.262888  0.000000
  -49650.262888  -49941.628679  0.000000
  0.000000  0.000000  0.000000


  65117.434636  -51367.368358  0.000000
  -51367.368358  -49805.713675  0.000000
  0.000000  0.000000  0.000000


  -94198.895578  -92352.561193  0.000000
  -92352.561193  38796.205941  0.000000
  0.000000  0.000000  0.000000


  -79706.907311  -159457.156770  0.000000
  -159457.156770  25525.608214  0.000000
  0.000000  0.000000  0.000000


  36468.381863  -70883.295817  0.000000
  -70883.295817  -39697.618347  0.000000
  0.000000  0.000000  0.000000


  58229.338365  -57745.120790  0.000000
  -57745.120790  -54817.106523  0.000000
  0.000000  0.000000  0.000000


  28696.126605  -72844.976556  0.000000
  -72844.976556  -26955.276034  0.000000
  0.000000  0.000000  0.000000


  -152373.412478  -95318.631712  0.000000
  -95318.631712  76428.164210  0.000000
  0.000000  0.000000  0.000000


  -133798.142448  -69293.425487  0.000000
  -69293.425487  71597.257553  0.000000
  0.000000  0.000000  0.000000


  -130744.328434  -207357.946771  0.000000
  -207357.946771  3877.577880  0.000000
  0.000000  0.000000  0.000000


  45622.782668  -57895.667095  0.000000
  -57895.667095  -48896.720774  0.000000
  0.000000  0.000000  0.000000


  22359.131135  -80926.858303  0.000000
  -80926.858303  -25203.353873  0.000000
  0.000000  0.000000  0.000000


  -169444.524788  -124556.359466  0.000000
  -124556.359466  70248.356419  0.000000
  0.000000  0.000000  0.000000


  -204737.414082  -126192.427826  0.000000
  -126192.427826  61856.869327  0.000000
  0.000000  0.000000  0.000000


  -187644.301444  -100716.369426  0.000000
  -100716.369426  68986.336716  0.000000
  0.000000  0.000000  0.000000


  -241425.349801  -103646.036056  0.000000
  -103646.036056  77459.501292  0.000000
  0.000000  0.000000  0.000000


  -180717.921986  -158761.647930  0.000000
  -158761.647930  60393.603865  0.000000
  0.000000  0.000000  0.000000


  -208813.369984  -123417.238723  0.000000
  -123417.238723  77475.655221  0.000000
  0.000000  0.000000  0.000000


  -157267.540412  -154604.062003  0.000000
  -154604.062003  52871.572205  0.000000
  0.000000  0.000000  0.000000


  -221401.829380  -162794.702212  0.000000
  -162794.702212  52253.612740  0.000000
  0.000000  0.000000  0.000000


  -147954.569210  -148964.000350  0.000000
  -148964.000350  51362.496259  0.000000
  0.000000  0.000000  0.000000


  -141987.186205  -178225.217261  0.000000
  -178225.217261  43735.227661  0.000000
  0.000000  0.000000  0.000000


  -181692.515368  -186897.749574  0.000000
  -186897.749574  28524.384377  0.000000
  0.000000  0.000000  0.000000


  -142832.649914  -150601.055962  0.000000
  -150601.055962  39316.521702  0.000000
  0.000000  0.000000  0.000000


  -284437.781906  -157238.681142  0.000000
  -157238.681142  76732.859883  0.000000
  0.000000  0.000000  0.000000


  -310304.470628  -140797.834866  0.000000
  -140797.834866  78879.022498  0.000000
  0.000000  0.000000  0.000000


  -268218.553959  -131132.665971  0.000000
  -131132.665971  75731.674684  0.000000
  0.000000  0.000000  0.000000


  -95724.995963  -165897.414917  0.000000
  -165897.414917  44410.359871  0.000000
  0.000000  0.000000  0.000000


  -137623.330254  -96511.258760  0.000000
  -96511.258760  65495.399073  0.000000
  0.000000  0.000000  0.000000


  -214324.192268  -160419.285489  0.000000
  -160419.285489  71778.882265  0.000000
  0.000000  0.000000  0.000000


  67566.785937  -42425.740762  0.000000
  -42425.740762  -51376.223813  0.000000
  0.000000  0.000000  0.000000


  715367.362295  25172.482182  0.000000
  25172.482182  -97406.023160  0.000000
  0.000000  0.000000  0.000000


  73900.347810  -40400.210320  0.000000
  -40400.210320  -52738.623296  0.000000
  0.000000  0.000000  0.000000


  70249.928172  -38599.771580  0.000000
  -38599.771580  -56236.654374  0.000000
  0.000000  0.000000  0.000000


  10013.763730  -68540.292685  0.000000
  -68540.292685  -24284.179568  0.000000
  0.000000  0.000000  0.000000


  21494.246696  -71091.553030  0.000000
  -71091.553030  -19353.517489  0.000000
  0.000000  0.000000  0.000000


  -124310.894635  -274551.123038  0.000000
  -274551.123038  -69636.887542  0.000000
  0.000000  0.000000  0.000000


  49911.180822  -63134.540894  0.000000
  -63134.540894  -43298.340847  0.000000
  0.000000  0.000000  0.000000


  36208.180337  -60806.302288  0.000000
  -60806.302288  -40443.171550  0.000000
  0.000000  0.000000  0.000000


  -108694.299974  -65468.480167  0.000000
  -65468.480167  50857.396252  0.000000
  0.000000  0.000000  0.000000


  -4197.111945  -113346.221303  0.000000
  -113346.221303  -3430.126405  0.000000
  0.000000  0.000000  0.000000


  10617.660216  -50836.078790  0.000000
  -50836.078790  -18498.861485  0.000000
  0.000000  0.000000  0.000000


  19751.655316  -46572.852246  0.000000
  -46572.852246  -27258.451812  0.000000
  0.000000  0.000000  0.000000


  44183.550930  -22478.714895  0.000000
  -22478.714895  -48002.739220  0.000000
  0.000000  0.000000  0.000000


  -638693.320393  -131192.181754  0.000000
  -131192.181754  121452.773478  0.000000
  0.000000  0.000000  0.000000


  -182935.270281  47111.284833  0.000000
  47111.284833  53801.580725  0.000000
  0.000000  0.000000  0.000000


  -86027.783347  -21732.106785  0.000000
  -21732.106785  50079.267457  0.000000
  0.000000  0.000000  0.000000


  -65204.676558  -36250.072158  0.000000
  -36250.072158  41275.718833  0.000000
  0.000000  0.000000  0.000000


  -57932.755090  -41065.333699  0.000000
  -41065.333699  36829.366724  0.000000
  0.000000  0.000000  0.000000


  -244464.151534  79915.073164  0.000000
  79915.073164  48260.699808  0.000000
  0.000000  0.000000  0.000000


  -45491.802224  -47464.539756  0.000000
  -47464.539756  27566.698120  0.000000
  0.000000  0.000000  0.000000


  28594.856997  -41751.694886  0.000000
  -41751.694886  -34046.570444  0.000000
  0.000000  0.000000  0.000000


  -3735.054305  -54606.006685  0.000000
  -54606.006685  -5914.394324  0.000000
  0.000000  0.000000  0.000000


  -19427.215674  -54445.613216  0.000000
  -54445.613216  6653.060493  0.000000
  0.000000  0.000000  0.000000


  -179165.921039  -191050.629419  0.000000
  -191050.629419  46827.972090  0.000000
  0.000000  0.000000  0.000000


  26531.773505  -55448.802317  0.000000
  -55448.802317  -35832.176179  0.000000
  0.000000  0.000000  0.000000


  -403335.754425  -196790.525257  0.000000
  -196790.525257  124674.780919  0.000000
  0.000000  0.000000  0.000000


  -392484.098078  -225389.621664  0.000000
  -225389.621664  95306.123682  0.000000
  0.000000  0.000000  0.000000


  -182496.494728  -73444.730202  0.000000
  -73444.730202  70947.530162  0.000000
  0.000000  0.000000  0.000000


  137457.394161  -5679.412059  0.000000
  -5679.412059  -38332.616649  0.000000
  0.000000  0.000000  0.000000


  17093.785719  -82883.208778  0.000000
  -82883.208778  -13705.095342  0.000000
  0.000000  0.000000  0.000000


  45248.173830  -64704.823328  0.000000
  -64704.823328  -37467.105213  0.000000
  0.000000  0.000000  0.000000


  -29424.108376  -74532.189524  0.000000
  -74532.189524  14692.015678  0.000000
  0.000000  0.000000  0.000000


  -104997.686948  -63025.293533  0.000000
  -63025.293533  62148.197071  0.000000
  0.000000  0.000000  0.000000


  48285.654093  -49374.697203  0.000000
  -49374.697203  -48213.507061  0.000000
  0.000000  0.000000  0.000000


  -272201.369448  23341.685166  0.000000
  23341.685166  85827.357969  0.000000
  0.000000  0.000000  0.000000


  -223920.750667  6334.079710  0.000000
  6334.079710  68840.964102  0.000000
  0.000000  0.000000  0.000000


  -68972.897394  -44212.133634  0.000000
  -44212.133634  37653.829675  0.000000
  0.000000  0.000000  0.000000


  -36022.642093  -71545.474083  0.000000
  -71545.474083  24602.891978  0.000000
  0.000000  0.000000  0.000000


  91869.523020  -28042.314167  0.000000
  -28042.314167  -52314.390286  0.000000
  0.000000  0.000000  0.000000


  -740124.374484  -157695.029400  0.000000
  -157695.029400  -211279.725490  0.000000
  0.000000  0.000000  0.000000


  -560919.360141  -151074.553671  0.000000
  -151074.553671  -219414.951083  0.000000
  0.000000  0.000000  0.000000


  -511133.921509  -173250.531016  0.000000
  -173250.531016  -259236.952859  0.000000
  0.000000  0.000000  0.000000


  -585302.595739  -205978.221067  0.000000
  -205978.221067  -168420.703393  0.000000
  0.000000  0.000000  0.000000


  638474.150140  51381.022924  0.000000
  51381.022924  160232.817292  0.000000
  0.000000  0.000000  0.000000


  181069.777719  147472.244049  0.000000
  147472.244049  88161.382949  0.000000
  0.000000  0.000000  0.000000


  98309.820540  77999.574721  0.000000
  77999.574721  46657.571128  0.000000
  0.000000  0.000000  0.000000


  -610017.224706  -148535.128234  0.000000
  -148535.128234  182501.769197  0.000000
  0.000000  0.000000  0.000000


  -61329.120570  -219712.667694  0.000000
  -219712.667694  3217.166648  0.000000
  0.000000  0.000000  0.000000


  687232.492695  32286.896641  0.000000
  32286.896641  58556.725756  0.000000
  0.000000  0.000000  0.000000


  -152572.932456  -67177.816586  0.000000
  -67177.816586  72545.876671  0.000000
  0.000000  0.000000  0.000000


  -49189.702032  -72858.741333  0.000000
  -72858.741333  21975.246917  0.000000
  0.000000  0.000000  0.000000


  -642385.916132  -89095.476876  0.000000
  -89095.476876  -190290.135451  0.000000
  0.000000  0.000000  0.000000


  111445.715226  -12583.325052  0.000000
  -12583.325052  -41209.616097  0.000000
  0.000000  0.000000  0.000000


  -61668.893981  -81743.811196  0.000000
  -81743.811196  31759.999130  0.000000
  0.000000  0.000000  0.000000


  -653236.419567  -121750.633702  0.000000
  -121750.633702  115549.823300  0.000000
  0.000000  0.000000  0.000000


  -141604.827088  -174231.969092  0.000000
  -174231.969092  26601.074980  0.000000
  0.000000  0.000000  0.000000


  577407.207567  -96308.839815  0.000000
  -96308.839815  32921.496038  0.000000
  0.000000  0.000000  0.000000


  483804.357135  -161432.639261  0.000000
  -161432.639261  181573.910434  0.000000
  0.000000  0.000000  0.000000


  29289.180063  -43312.736944  0.000000
  -43312.736944  -37327.490912  0.000000
  0.000000  0.000000  0.000000


  -97219.220910  -199831.005822  0.000000
  -199831.005822  14791.696332  0.000000
  0.000000  0.000000  0.000000

