# vtk DataFile Version 2.0
geometrically linear steady-state plane stress analysis
ASCII

DATASET UNSTRUCTURED_GRID
POINTS 76 double
  4.368748  -3.974194  0.000000
  4.422740  -3.052600  0.000000
  3.370142  -3.915295  0.000000
  3.583537  -2.540998  0.000000
  4.476070  -2.131329  0.000000
  2.798648  -3.001287  0.000000
  2.371948  -3.854837  0.000000
  2.765918  -2.102904  0.000000
  3.635860  -1.620475  0.000000
  4.528568  -1.211263  0.000000
  1.900622  -2.591077  0.000000
  1.375503  -3.793309  0.000000
  2.795070  -1.108046  0.000000
  3.687770  -0.701115  0.000000
  1.663785  -1.532541  0.000000
  0.815042  -2.988340  0.000000
  4.581043  -0.292594  0.000000
  0.381959  -3.730746  0.000000
  2.876645  -0.118031  0.000000
  3.740051  0.217092  0.000000
  1.784586  -0.475194  0.000000
  0.478110  -1.996726  0.000000
  -0.064445  -2.832008  0.000000
  4.634347  0.624864  0.000000
  -0.607860  -3.669363  0.000000
  2.989770  0.854014  0.000000
  0.257213  -0.921461  0.000000
  -0.318344  -1.926221  0.000000
  1.973565  0.693443  0.000000
  0.739179  0.185255  0.000000
  4.688269  1.541999  0.000000
  3.687776  1.600802  0.000000
  -1.132874  -2.572082  0.000000
  2.687035  1.661289  0.000000
  1.058825  1.024694  0.000000
  -1.593299  -3.610788  0.000000
  -1.168669  -1.379066  0.000000
  -0.244185  0.123638  0.000000
  1.684402  1.722918  0.000000
  -1.042293  -0.357112  0.000000
  0.125820  0.956498  0.000000
  -2.063096  -2.796062  0.000000
  -2.062432  -1.801395  0.000000
  0.678760  1.785459  0.000000
  -2.572045  -3.555063  0.000000
  -2.000341  -0.808729  0.000000
  -1.107795  0.649386  0.000000
  -0.330792  1.846870  0.000000
  -2.960594  -2.447868  0.000000
  -1.990527  0.183363  0.000000
  -2.879787  -1.221288  0.000000
  -3.545684  -3.506525  0.000000
  -2.854549  -0.301733  0.000000
  -1.975966  1.171492  0.000000
  -1.343849  1.905046  0.000000
  -3.800508  -2.637436  0.000000
  -3.751385  -1.640067  0.000000
  -2.860688  0.919811  0.000000
  -3.733886  -0.718873  0.000000
  -2.363478  1.961500  0.000000
  -4.508286  -3.463074  0.000000
  -3.716135  0.199884  0.000000
  -4.613529  -2.069234  0.000000
  -4.604479  -1.146471  0.000000
  -3.718437  1.188423  0.000000
  -4.596018  -0.225778  0.000000
  -3.388311  2.011442  0.000000
  -5.466160  -3.429120  0.000000
  -4.586719  0.692637  0.000000
  -5.466160  -2.507450  0.000000
  -5.466160  -1.585780  0.000000
  -5.466160  -0.664120  0.000000
  -4.424584  2.058485  0.000000
  -5.466160  0.257550  0.000000
  -5.466160  1.179220  0.000000
  -5.466160  2.100890  0.000000

CELLS  118  472
  3  75  74  72
  3  70  69  62
  3  4  9  8
  3  73  71  65
  3  0  1  2
  3  16  23  19
  3  74  73  68
  3  69  67  60
  3  9  16  13
  3  71  70  63
  3  1  4  3
  3  23  30  31
  3  62  69  60
  3  65  71  63
  3  65  63  58
  3  68  73  65
  3  68  65  61
  3  63  70  62
  3  63  62  56
  3  58  63  56
  3  58  56  50
  3  65  58  61
  3  61  58  52
  3  68  61  64
  3  50  56  48
  3  58  50  52
  3  52  50  45
  3  61  52  57
  3  45  50  42
  3  52  45  49
  3  8  9  13
  3  8  13  12
  3  12  13  18
  3  8  12  7
  3  19  23  31
  3  13  16  19
  3  13  19  18
  3  18  19  25
  3  3  4  8
  3  3  8  7
  3  3  7  5
  3  74  68  72
  3  56  62  55
  3  1  3  2
  3  25  19  31
  3  18  25  28
  3  5  7  10
  3  3  5  2
  3  64  61  57
  3  64  57  66
  3  57  52  49
  3  57  49  53
  3  49  45  39
  3  7  12  14
  3  53  49  46
  3  48  56  55
  3  48  51  44
  3  42  50  48
  3  42  48  41
  3  41  48  44
  3  41  44  35
  3  41  35  32
  3  32  35  24
  3  41  32  42
  3  55  62  60
  3  68  64  72
  3  57  53  59
  3  59  53  54
  3  54  53  46
  3  45  42  36
  3  12  18  20
  3  28  25  33
  3  33  25  31
  3  18  28  20
  3  10  7  14
  3  5  10  6
  3  5  6  2
  3  66  72  64
  3  66  57  59
  3  17  11  15
  3  43  47  40
  3  51  48  55
  3  51  55  60
  3  33  38  28
  3  11  6  10
  3  47  54  46
  3  38  43  34
  3  24  17  22
  3  39  45  36
  3  46  49  39
  3  46  39  37
  3  12  20  14
  3  46  37  40
  3  40  37  29
  3  29  37  26
  3  40  29  34
  3  34  29  28
  3  26  37  39
  3  29  26  20
  3  40  34  43
  3  36  42  32
  3  15  11  10
  3  40  47  46
  3  22  17  15
  3  22  15  21
  3  21  10  14
  3  22  21  27
  3  38  34  28
  3  24  22  32
  3  27  21  26
  3  22  27  32
  3  20  28  29
  3  10  21  15
  3  32  27  36
  3  36  27  26
  3  39  36  26
  3  14  26  21
  3  20  26  14

CELL_TYPES 118
5
5
5
5
5
5
5
5
5
5
5
5
5
5
5
5
5
5
5
5
5
5
5
5
5
5
5
5
5
5
5
5
5
5
5
5
5
5
5
5
5
5
5
5
5
5
5
5
5
5
5
5
5
5
5
5
5
5
5
5
5
5
5
5
5
5
5
5
5
5
5
5
5
5
5
5
5
5
5
5
5
5
5
5
5
5
5
5
5
5
5
5
5
5
5
5
5
5
5
5
5
5
5
5
5
5
5
5
5
5
5
5
5
5
5
5
5
5

CELL_DATA 118
TENSORS strain double
  0.042911  -0.021230  0.000000
  -0.021230  0.000000  0.000000
  0.000000  0.000000  0.000000

  -0.015472  -0.013056  0.000000
  -0.013056  0.000000  0.000000
  0.000000  0.000000  0.000000

  0.000495  -0.000861  0.000000
  -0.000861  -0.001729  0.000000
  0.000000  0.000000  0.000000

  0.004749  -0.012989  0.000000
  -0.012989  0.000000  0.000000
  0.000000  0.000000  0.000000

  -0.000115  -0.000197  0.000000
  -0.000197  -0.000083  0.000000
  0.000000  0.000000  0.000000

  0.001864  -0.000500  0.000000
  -0.000500  -0.004570  0.000000
  0.000000  0.000000  0.000000

  0.015486  -0.014869  0.000000
  -0.014869  0.000000  0.000000
  0.000000  0.000000  0.000000

  -0.040899  -0.016999  0.000000
  -0.016999  0.000000  0.000000
  0.000000  0.000000  0.000000

  0.001162  -0.000867  0.000000
  -0.000867  -0.003256  0.000000
  0.000000  0.000000  0.000000

  -0.005022  -0.012425  0.000000
  -0.012425  0.000000  0.000000
  0.000000  0.000000  0.000000

  -0.000187  -0.000497  0.000000
  -0.000497  -0.000433  0.000000
  0.000000  0.000000  0.000000

  0.001776  -0.000187  0.000000
  -0.000187  -0.004921  0.000000
  0.000000  0.000000  0.000000

  -0.024771  -0.005760  0.000000
  -0.005760  0.005420  0.000000
  0.000000  0.000000  0.000000

  -0.000137  -0.008117  0.000000
  -0.008117  -0.001060  0.000000
  0.000000  0.000000  0.000000

  0.000395  -0.014315  0.000000
  -0.014315  -0.001060  0.000000
  0.000000  0.000000  0.000000

  0.010117  -0.008884  0.000000
  -0.008884  -0.003532  0.000000
  0.000000  0.000000  0.000000

  0.010639  -0.014320  0.000000
  -0.014320  -0.003532  0.000000
  0.000000  0.000000  0.000000

  -0.010247  -0.007831  0.000000
  -0.007831  0.001186  0.000000
  0.000000  0.000000  0.000000

  -0.009701  -0.013692  0.000000
  -0.013692  0.001186  0.000000
  0.000000  0.000000  0.000000

  -0.004823  -0.009559  0.000000
  -0.009559  -0.000506  0.000000
  0.000000  0.000000  0.000000

  -0.003674  -0.014650  0.000000
  -0.014650  -0.000506  0.000000
  0.000000  0.000000  0.000000

  0.005759  -0.009834  0.000000
  -0.009834  -0.003160  0.000000
  0.000000  0.000000  0.000000

  0.005117  -0.014759  0.000000
  -0.014759  -0.003160  0.000000
  0.000000  0.000000  0.000000

  0.018302  -0.008177  0.000000
  -0.008177  -0.007509  0.000000
  0.000000  0.000000  0.000000

  -0.009763  -0.009470  0.000000
  -0.009470  0.001530  0.000000
  0.000000  0.000000  0.000000

  0.000794  -0.010928  0.000000
  -0.010928  -0.002295  0.000000
  0.000000  0.000000  0.000000

  0.000932  -0.013567  0.000000
  -0.013567  -0.002295  0.000000
  0.000000  0.000000  0.000000

  0.011464  -0.009589  0.000000
  -0.009589  -0.006143  0.000000
  0.000000  0.000000  0.000000

  -0.003751  -0.009557  0.000000
  -0.009557  -0.000830  0.000000
  0.000000  0.000000  0.000000

  0.005696  -0.009634  0.000000
  -0.009634  -0.004337  0.000000
  0.000000  0.000000  0.000000

  0.000835  -0.000974  0.000000
  -0.000974  -0.002506  0.000000
  0.000000  0.000000  0.000000

  0.000837  -0.002297  0.000000
  -0.002297  -0.002506  0.000000
  0.000000  0.000000  0.000000

  0.001202  -0.002411  0.000000
  -0.002411  -0.003369  0.000000
  0.000000  0.000000  0.000000

  0.000472  -0.002418  0.000000
  -0.002418  -0.001674  0.000000
  0.000000  0.000000  0.000000

  0.001605  -0.000206  0.000000
  -0.000206  -0.004762  0.000000
  0.000000  0.000000  0.000000

  0.001273  -0.000839  0.000000
  -0.000839  -0.003757  0.000000
  0.000000  0.000000  0.000000

  0.001895  -0.001989  0.000000
  -0.001989  -0.003757  0.000000
  0.000000  0.000000  0.000000

  0.001711  -0.001567  0.000000
  -0.001567  -0.004722  0.000000
  0.000000  0.000000  0.000000

  0.000393  -0.000827  0.000000
  -0.000827  -0.001244  0.000000
  0.000000  0.000000  0.000000

  -0.000249  -0.001988  0.000000
  -0.001988  -0.001244  0.000000
  0.000000  0.000000  0.000000

  -0.000040  -0.001548  0.000000
  -0.001548  -0.000320  0.000000
  0.000000  0.000000  0.000000

  0.025516  -0.007770  0.000000
  -0.007770  -0.008744  0.000000
  0.000000  0.000000  0.000000

  -0.016979  -0.007457  0.000000
  -0.007457  0.003453  0.000000
  0.000000  0.000000  0.000000

  0.000082  -0.000207  0.000000
  -0.000207  -0.000292  0.000000
  0.000000  0.000000  0.000000

  0.002696  -0.000992  0.000000
  -0.000992  -0.004923  0.000000
  0.000000  0.000000  0.000000

  0.003602  -0.002541  0.000000
  -0.002541  -0.004615  0.000000
  0.000000  0.000000  0.000000

  -0.001881  -0.002533  0.000000
  -0.002533  -0.000489  0.000000
  0.000000  0.000000  0.000000

  -0.000866  -0.000993  0.000000
  -0.000993  -0.000132  0.000000
  0.000000  0.000000  0.000000

  0.017719  -0.012210  0.000000
  -0.012210  -0.007721  0.000000
  0.000000  0.000000  0.000000

  0.021387  -0.006078  0.000000
  -0.006078  -0.012654  0.000000
  0.000000  0.000000  0.000000

  0.009026  -0.011632  0.000000
  -0.011632  -0.006286  0.000000
  0.000000  0.000000  0.000000

  0.017106  -0.007274  0.000000
  -0.007274  -0.008318  0.000000
  0.000000  0.000000  0.000000

  0.004442  -0.011532  0.000000
  -0.011532  -0.004436  0.000000
  0.000000  0.000000  0.000000

  -0.000113  -0.003555  0.000000
  -0.003555  -0.001733  0.000000
  0.000000  0.000000  0.000000

  0.010151  -0.008629  0.000000
  -0.008629  -0.008385  0.000000
  0.000000  0.000000  0.000000

  -0.016244  -0.011942  0.000000
  -0.011942  0.003688  0.000000
  0.000000  0.000000  0.000000

  -0.025113  -0.004649  0.000000
  -0.004649  0.007810  0.000000
  0.000000  0.000000  0.000000

  -0.007460  -0.011674  0.000000
  -0.011674  0.001685  0.000000
  0.000000  0.000000  0.000000

  -0.015316  -0.007405  0.000000
  -0.007405  0.003577  0.000000
  0.000000  0.000000  0.000000

  -0.014225  -0.005422  0.000000
  -0.005422  0.005343  0.000000
  0.000000  0.000000  0.000000

  -0.020000  -0.004233  0.000000
  -0.004233  0.006072  0.000000
  0.000000  0.000000  0.000000

  -0.013086  -0.003318  0.000000
  -0.003318  0.004253  0.000000
  0.000000  0.000000  0.000000

  -0.013298  -0.003330  0.000000
  -0.003330  0.004294  0.000000
  0.000000  0.000000  0.000000

  -0.009708  -0.008854  0.000000
  -0.008854  0.003451  0.000000
  0.000000  0.000000  0.000000

  -0.020550  -0.009905  0.000000
  -0.009905  0.004585  0.000000
  0.000000  0.000000  0.000000

  0.021655  -0.010604  0.000000
  -0.010604  -0.008165  0.000000
  0.000000  0.000000  0.000000

  0.015939  -0.005253  0.000000
  -0.005253  -0.010399  0.000000
  0.000000  0.000000  0.000000

  0.020935  -0.004565  0.000000
  -0.004565  -0.011097  0.000000
  0.000000  0.000000  0.000000

  0.015637  -0.003788  0.000000
  -0.003788  -0.009267  0.000000
  0.000000  0.000000  0.000000

  -0.002522  -0.011519  0.000000
  -0.011519  -0.000727  0.000000
  0.000000  0.000000  0.000000

  0.002030  -0.003509  0.000000
  -0.003509  -0.003312  0.000000
  0.000000  0.000000  0.000000

  0.003058  -0.001237  0.000000
  -0.001237  -0.005396  0.000000
  0.000000  0.000000  0.000000

  0.002014  -0.000788  0.000000
  -0.000788  -0.004796  0.000000
  0.000000  0.000000  0.000000

  0.002179  -0.003433  0.000000
  -0.003433  -0.004627  0.000000
  0.000000  0.000000  0.000000

  -0.000456  -0.003654  0.000000
  -0.003654  -0.000432  0.000000
  0.000000  0.000000  0.000000

  -0.001150  -0.001421  0.000000
  -0.001421  0.000345  0.000000
  0.000000  0.000000  0.000000

  -0.000537  -0.000921  0.000000
  -0.000921  -0.000196  0.000000
  0.000000  0.000000  0.000000

  0.037591  -0.007300  0.000000
  -0.007300  -0.013727  0.000000
  0.000000  0.000000  0.000000

  0.026147  -0.004738  0.000000
  -0.004738  -0.012540  0.000000
  0.000000  0.000000  0.000000

  -0.005183  -0.002168  0.000000
  -0.002168  0.001720  0.000000
  0.000000  0.000000  0.000000

  0.010835  -0.002934  0.000000
  -0.002934  -0.007349  0.000000
  0.000000  0.000000  0.000000

  -0.019769  -0.005955  0.000000
  -0.005955  0.007733  0.000000
  0.000000  0.000000  0.000000

  -0.036174  -0.006301  0.000000
  -0.006301  0.009433  0.000000
  0.000000  0.000000  0.000000

  0.003918  -0.001407  0.000000
  -0.001407  -0.005533  0.000000
  0.000000  0.000000  0.000000

  -0.002277  -0.001575  0.000000
  -0.001575  0.000429  0.000000
  0.000000  0.000000  0.000000

  0.014356  -0.003585  0.000000
  -0.003585  -0.009099  0.000000
  0.000000  0.000000  0.000000

  0.006931  -0.002122  0.000000
  -0.002122  -0.006554  0.000000
  0.000000  0.000000  0.000000

  -0.008922  -0.002729  0.000000
  -0.002729  0.002329  0.000000
  0.000000  0.000000  0.000000

  0.001202  -0.009049  0.000000
  -0.009049  -0.002632  0.000000
  0.000000  0.000000  0.000000

  0.008387  -0.007971  0.000000
  -0.007971  -0.005803  0.000000
  0.000000  0.000000  0.000000

  0.006405  -0.008708  0.000000
  -0.008708  -0.005939  0.000000
  0.000000  0.000000  0.000000

  0.000853  -0.004416  0.000000
  -0.004416  -0.002702  0.000000
  0.000000  0.000000  0.000000

  0.009868  -0.005674  0.000000
  -0.005674  -0.006575  0.000000
  0.000000  0.000000  0.000000

  0.004870  -0.005474  0.000000
  -0.005474  -0.006016  0.000000
  0.000000  0.000000  0.000000

  0.005186  -0.006833  0.000000
  -0.006833  -0.004148  0.000000
  0.000000  0.000000  0.000000

  0.007043  -0.004374  0.000000
  -0.004374  -0.005767  0.000000
  0.000000  0.000000  0.000000

  0.004232  -0.004069  0.000000
  -0.004069  -0.005681  0.000000
  0.000000  0.000000  0.000000

  0.003152  -0.007081  0.000000
  -0.007081  -0.003821  0.000000
  0.000000  0.000000  0.000000

  0.001946  -0.006307  0.000000
  -0.006307  -0.004091  0.000000
  0.000000  0.000000  0.000000

  0.006490  -0.002309  0.000000
  -0.002309  -0.006625  0.000000
  0.000000  0.000000  0.000000

  -0.006950  -0.007885  0.000000
  -0.007885  0.000989  0.000000
  0.000000  0.000000  0.000000

  -0.004132  -0.002141  0.000000
  -0.002141  0.001100  0.000000
  0.000000  0.000000  0.000000

  0.008587  -0.003551  0.000000
  -0.003551  -0.007313  0.000000
  0.000000  0.000000  0.000000

  -0.005047  -0.002170  0.000000
  -0.002170  0.001686  0.000000
  0.000000  0.000000  0.000000

  -0.005625  -0.004786  0.000000
  -0.004786  0.000655  0.000000
  0.000000  0.000000  0.000000

  -0.002182  -0.004622  0.000000
  -0.004622  -0.000842  0.000000
  0.000000  0.000000  0.000000

  -0.003029  -0.005857  0.000000
  -0.005857  0.001028  0.000000
  0.000000  0.000000  0.000000

  0.005553  -0.001897  0.000000
  -0.001897  -0.006062  0.000000
  0.000000  0.000000  0.000000

  -0.007524  -0.003310  0.000000
  -0.003310  0.002535  0.000000
  0.000000  0.000000  0.000000

  -0.003085  -0.007025  0.000000
  -0.007025  -0.001003  0.000000
  0.000000  0.000000  0.000000

  -0.008483  -0.006115  0.000000
  -0.006115  0.001481  0.000000
  0.000000  0.000000  0.000000

  0.004219  -0.004356  0.000000
  -0.004356  -0.004456  0.000000
  0.000000  0.000000  0.000000

  -0.002120  -0.004306  0.000000
  -0.004306  0.000471  0.000000
  0.000000  0.000000  0.000000

  -0.003900  -0.008452  0.000000
  -0.008452  0.000887  0.000000
  0.000000  0.000000  0.000000

  -0.001633  -0.007064  0.000000
  -0.007064  -0.001336  0.000000
  0.000000  0.000000  0.000000

  0.000830  -0.010002  0.000000
  -0.010002  -0.002476  0.000000
  0.000000  0.000000  0.000000

  -0.000197  -0.006713  0.000000
  -0.006713  -0.001035  0.000000
  0.000000  0.000000  0.000000

  0.001026  -0.005313  0.000000
  -0.005313  -0.002595  0.000000
  0.000000  0.000000  0.000000
POINT_DATA 76
VECTORS displacements double
  -0.152322  -0.545074  0.000000
  -0.098330  -0.545150  0.000000
  -0.152208  -0.486175  0.000000
  -0.071503  -0.494378  0.000000
  -0.045000  -0.545549  0.000000
  -0.100432  -0.448617  0.000000
  -0.151672  -0.425717  0.000000
  -0.049292  -0.443844  0.000000
  -0.019180  -0.495525  0.000000
  0.007498  -0.547143  0.000000
  -0.078548  -0.391647  0.000000
  -0.149397  -0.364189  0.000000
  0.006050  -0.443926  0.000000
  0.032730  -0.497835  0.000000
  -0.021335  -0.373821  0.000000
  -0.101608  -0.324770  0.000000
  0.059973  -0.550144  0.000000
  -0.144221  -0.301626  0.000000
  0.061435  -0.448861  0.000000
  0.085011  -0.501298  0.000000
  0.035616  -0.380674  0.000000
  -0.048070  -0.299656  0.000000
  -0.091265  -0.268918  0.000000
  0.113277  -0.554356  0.000000
  -0.135310  -0.240243  0.000000
  0.117520  -0.456926  0.000000
  0.005023  -0.283351  0.000000
  -0.044624  -0.248971  0.000000
  0.101165  -0.393807  0.000000
  0.063809  -0.314895  0.000000
  0.167199  -0.558891  0.000000
  0.165426  -0.500088  0.000000
  -0.072474  -0.201222  0.000000
  0.163415  -0.439601  0.000000
  0.112335  -0.336906  0.000000
  -0.122029  -0.181668  0.000000
  -0.019239  -0.194696  0.000000
  0.052615  -0.252762  0.000000
  0.159502  -0.377972  0.000000
  0.024367  -0.202402  0.000000
  0.099000  -0.278362  0.000000
  -0.074716  -0.148072  0.000000
  -0.034182  -0.142335  0.000000
  0.152580  -0.315431  0.000000
  -0.102055  -0.125943  0.000000
  0.001719  -0.144609  0.000000
  0.067825  -0.201694  0.000000
  0.141758  -0.254020  0.000000
  -0.048614  -0.096048  0.000000
  0.037723  -0.147467  0.000000
  -0.011707  -0.096338  0.000000
  -0.076974  -0.077405  0.000000
  0.013531  -0.098453  0.000000
  0.078474  -0.154278  0.000000
  0.127421  -0.195844  0.000000
  -0.040208  -0.056716  0.000000
  -0.017275  -0.054287  0.000000
  0.051292  -0.103779  0.000000
  0.000224  -0.054753  0.000000
  0.106512  -0.139390  0.000000
  -0.040846  -0.033954  0.000000
  0.017975  -0.057666  0.000000
  -0.013399  -0.022614  0.000000
  -0.004349  -0.021521  0.000000
  0.041863  -0.064067  0.000000
  0.004112  -0.022498  0.000000
  0.080399  -0.089448  0.000000
  0.000000  0.000000  0.000000
  0.013411  -0.025753  0.000000
  0.000000  0.000000  0.000000
  0.000000  0.000000  0.000000
  0.000000  0.000000  0.000000
  0.042856  -0.042405  0.000000
  0.000000  0.000000  0.000000
  0.000000  0.000000  0.000000
  0.000000  0.000000  0.000000

CELL_DATA 118
TENSORS stress double
  482746.540244  -159223.352746  0.000000
  -159223.352746  160913.904259  0.000000
  0.000000  0.000000  0.000000


  -174058.992107  -97920.230755  0.000000
  -97920.230755  -58019.083839  0.000000
  0.000000  0.000000  0.000000


  -921.139172  -6459.794678  0.000000
  -6459.794678  -17599.178651  0.000000
  0.000000  0.000000  0.000000


  53420.782355  -97418.404509  0.000000
  -97418.404509  17806.749382  0.000000
  0.000000  0.000000  0.000000


  -1599.839710  -1476.414076  0.000000
  -1476.414076  -1362.510575  0.000000
  0.000000  0.000000  0.000000


  3833.704744  -3749.744913  0.000000
  -3749.744913  -44420.053353  0.000000
  0.000000  0.000000  0.000000


  174218.193748  -111514.063705  0.000000
  -111514.063705  58072.150522  0.000000
  0.000000  0.000000  0.000000


  -460107.999397  -127492.184746  0.000000
  -127492.184746  -153367.799439  0.000000
  0.000000  0.000000  0.000000


  858.497083  -6500.396395  0.000000
  -6500.396395  -32272.412094  0.000000
  0.000000  0.000000  0.000000


  -56494.398480  -93188.326803  0.000000
  -93188.326803  -18831.277845  0.000000
  0.000000  0.000000  0.000000


  -3731.983096  -3729.366971  0.000000
  -3729.366971  -5574.645102  0.000000
  0.000000  0.000000  0.000000


  1521.623734  -1404.232364  0.000000
  -1404.232364  -48704.102408  0.000000
  0.000000  0.000000  0.000000


  -258349.625725  -43201.279408  0.000000
  -43201.279408  -31916.352246  0.000000
  0.000000  0.000000  0.000000


  -5512.058230  -60876.588372  0.000000
  -60876.588372  -12436.543885  0.000000
  0.000000  0.000000  0.000000


  474.259380  -107359.955452  0.000000
  -107359.955452  -10441.124636  0.000000
  0.000000  0.000000  0.000000


  100574.308527  -66630.958034  0.000000
  -66630.958034  -1794.738443  0.000000
  0.000000  0.000000  0.000000


  106439.438166  -107399.051844  0.000000
  -107399.051844  160.285219  0.000000
  0.000000  0.000000  0.000000


  -110829.879043  -58731.610843  0.000000
  -58731.610843  -25086.299453  0.000000
  0.000000  0.000000  0.000000


  -104691.261562  -102692.209855  0.000000
  -102692.209855  -23040.114088  0.000000
  0.000000  0.000000  0.000000


  -56155.530736  -71689.994800  0.000000
  -71689.994800  -23782.153880  0.000000
  0.000000  0.000000  0.000000


  -43225.825060  -109875.991968  0.000000
  -109875.991968  -19472.295087  0.000000
  0.000000  0.000000  0.000000


  52938.781128  -73753.380505  0.000000
  -73753.380505  -13951.300086  0.000000
  0.000000  0.000000  0.000000


  45716.553919  -110695.915067  0.000000
  -110695.915067  -16358.685081  0.000000
  0.000000  0.000000  0.000000


  177742.890236  -61327.954693  0.000000
  -61327.954693  -15843.654750  0.000000
  0.000000  0.000000  0.000000


  -104098.899709  -71022.984539  0.000000
  -71022.984539  -19396.661658  0.000000
  0.000000  0.000000  0.000000


  329.775982  -81959.014118  0.000000
  -81959.014118  -22836.742266  0.000000
  0.000000  0.000000  0.000000


  1875.780260  -101753.774209  0.000000
  -101753.774209  -22321.412660  0.000000
  0.000000  0.000000  0.000000


  105937.327945  -71916.711352  0.000000
  -71916.711352  -26119.517059  0.000000
  0.000000  0.000000  0.000000


  -45305.261973  -71680.445046  0.000000
  -71680.445046  -23398.161704  0.000000
  0.000000  0.000000  0.000000


  47817.333019  -72253.621225  0.000000
  -72253.621225  -27429.669771  0.000000
  0.000000  0.000000  0.000000


  -6.829940  -7307.404501  0.000000
  -7307.404501  -25066.690629  0.000000
  0.000000  0.000000  0.000000


  15.272410  -17230.188632  0.000000
  -17230.188632  -25059.323253  0.000000
  0.000000  0.000000  0.000000


  890.515623  -18083.357418  0.000000
  -18083.357418  -33393.097515  0.000000
  0.000000  0.000000  0.000000


  -962.360598  -18137.038588  0.000000
  -18137.038588  -17058.087776  0.000000
  0.000000  0.000000  0.000000


  204.818617  -1544.423792  0.000000
  -1544.423792  -47550.410839  0.000000
  0.000000  0.000000  0.000000


  238.513513  -6289.218632  0.000000
  -6289.218632  -37489.799023  0.000000
  0.000000  0.000000  0.000000


  7235.652767  -14920.374812  0.000000
  -14920.374812  -35157.442595  0.000000
  0.000000  0.000000  0.000000


  1544.237123  -11753.530210  0.000000
  -11753.530210  -46707.559502  0.000000
  0.000000  0.000000  0.000000


  -239.059503  -6204.102799  0.000000
  -6204.102799  -12519.876688  0.000000
  0.000000  0.000000  0.000000


  -7468.249731  -14907.322112  0.000000
  -14907.322112  -14929.582666  0.000000
  0.000000  0.000000  0.000000


  -1648.375184  -11607.022824  0.000000
  -11607.022824  -3752.382384  0.000000
  0.000000  0.000000  0.000000


  254264.471927  -58278.338896  0.000000
  -58278.338896  -2687.368502  0.000000
  0.000000  0.000000  0.000000


  -178063.513907  -55929.643632  0.000000
  -55929.643632  -24824.969472  0.000000
  0.000000  0.000000  0.000000


  -174.412975  -1550.633925  0.000000
  -1550.633925  -2979.497628  0.000000
  0.000000  0.000000  0.000000


  11873.437021  -7443.291473  0.000000
  -7443.291473  -45271.166046  0.000000
  0.000000  0.000000  0.000000


  23217.847780  -19061.033260  0.000000
  -19061.033260  -38413.064253  0.000000
  0.000000  0.000000  0.000000


  -22995.782585  -18997.110453  0.000000
  -18997.110453  -12555.508188  0.000000
  0.000000  0.000000  0.000000


  -10242.057871  -7448.579561  0.000000
  -7448.579561  -4738.476295  0.000000
  0.000000  0.000000  0.000000


  170380.987292  -91574.426846  0.000000
  -91574.426846  -20416.704426  0.000000
  0.000000  0.000000  0.000000


  193152.656869  -45583.410397  0.000000
  -45583.410397  -62152.929091  0.000000
  0.000000  0.000000  0.000000


  77965.884747  -87237.844477  0.000000
  -87237.844477  -36873.937536  0.000000
  0.000000  0.000000  0.000000


  161247.190836  -54558.191164  0.000000
  -54558.191164  -29436.383402  0.000000
  0.000000  0.000000  0.000000


  33338.485826  -86493.506787  0.000000
  -86493.506787  -33246.773992  0.000000
  0.000000  0.000000  0.000000


  -7770.240063  -26660.013748  0.000000
  -26660.013748  -19921.572704  0.000000
  0.000000  0.000000  0.000000


  82753.719138  -64714.971893  0.000000
  -64714.971893  -56265.375346  0.000000
  0.000000  0.000000  0.000000


  -168911.208550  -89563.197404  0.000000
  -89563.197404  -19418.416800  0.000000
  0.000000  0.000000  0.000000


  -253233.546289  -34863.851219  0.000000
  -34863.851219  -6307.396994  0.000000
  0.000000  0.000000  0.000000


  -77609.026030  -87557.152019  0.000000
  -87557.152019  -9018.610241  0.000000
  0.000000  0.000000  0.000000


  -158888.807153  -55539.274907  0.000000
  -55539.274907  -17196.497347  0.000000
  0.000000  0.000000  0.000000


  -139996.190093  -40662.361813  0.000000
  -40662.361813  6766.822067  0.000000
  0.000000  0.000000  0.000000


  -202224.572420  -31746.897727  0.000000
  -31746.897727  -6682.757502  0.000000
  0.000000  0.000000  0.000000


  -131265.310707  -24887.807915  0.000000
  -24887.807915  -1221.183806  0.000000
  0.000000  0.000000  0.000000


  -133497.715900  -24973.941615  0.000000
  -24973.941615  -1556.471866  0.000000
  0.000000  0.000000  0.000000


  -96271.273308  -66408.570338  0.000000
  -66408.570338  2416.095912  0.000000
  0.000000  0.000000  0.000000


  -213988.579492  -74284.553068  0.000000
  -74284.553068  -25473.848575  0.000000
  0.000000  0.000000  0.000000


  213001.502241  -79533.626496  0.000000
  -79533.626496  -10645.773417  0.000000
  0.000000  0.000000  0.000000


  140323.318397  -39395.544939  0.000000
  -39395.544939  -57213.564561  0.000000
  0.000000  0.000000  0.000000


  193904.239792  -34235.494420  0.000000
  -34235.494420  -46334.144848  0.000000
  0.000000  0.000000  0.000000


  141169.067374  -28411.116226  0.000000
  -28411.116226  -45610.665716  0.000000
  0.000000  0.000000  0.000000


  -31104.617570  -86395.116372  0.000000
  -86395.116372  -17640.274262  0.000000
  0.000000  0.000000  0.000000


  10415.223402  -26315.948401  0.000000
  -26315.948401  -29646.079871  0.000000
  0.000000  0.000000  0.000000


  14164.458578  -9278.624355  0.000000
  -9278.624355  -49237.105678  0.000000
  0.000000  0.000000  0.000000


  4666.910270  -5912.738134  0.000000
  -5912.738134  -46408.133093  0.000000
  0.000000  0.000000  0.000000


  7160.204636  -25749.102069  0.000000
  -25749.102069  -43879.732342  0.000000
  0.000000  0.000000  0.000000


  -6748.839852  -27403.778302  0.000000
  -27403.778302  -6573.608267  0.000000
  0.000000  0.000000  0.000000


  -11642.320125  -10655.337482  0.000000
  -10655.337482  -431.369485  0.000000
  0.000000  0.000000  0.000000


  -6775.351477  -6905.202918  0.000000
  -6905.202918  -4217.868004  0.000000
  0.000000  0.000000  0.000000


  371417.803195  -54752.283662  0.000000
  -54752.283662  -13469.156347  0.000000
  0.000000  0.000000  0.000000


  247128.888407  -35531.815946  0.000000
  -35531.815946  -43021.093675  0.000000
  0.000000  0.000000  0.000000


  -51860.295228  -16260.323211  0.000000
  -16260.323211  -88.959592  0.000000
  0.000000  0.000000  0.000000


  94338.269204  -22005.548979  0.000000
  -22005.548979  -42044.926832  0.000000
  0.000000  0.000000  0.000000


  -193404.697998  -44660.218448  0.000000
  -44660.218448  12864.069315  0.000000
  0.000000  0.000000  0.000000


  -371583.875780  -47257.920711  0.000000
  -47257.920711  -29531.009276  0.000000
  0.000000  0.000000  0.000000


  23324.044498  -10549.661398  0.000000
  -10549.661398  -47555.674117  0.000000
  0.000000  0.000000  0.000000


  -24008.823651  -11814.258188  0.000000
  -11814.258188  -3711.948726  0.000000
  0.000000  0.000000  0.000000


  127387.466935  -26890.141837  0.000000
  -26890.141837  -48528.254424  0.000000
  0.000000  0.000000  0.000000


  53394.713330  -15912.187941  0.000000
  -15912.187941  -47744.673035  0.000000
  0.000000  0.000000  0.000000


  -91637.273863  -20465.259715  0.000000
  -20465.259715  -7252.373452  0.000000
  0.000000  0.000000  0.000000


  3649.909726  -67865.104362  0.000000
  -67865.104362  -25103.711701  0.000000
  0.000000  0.000000  0.000000


  72593.966247  -59783.326395  0.000000
  -59783.326395  -33828.887574  0.000000
  0.000000  0.000000  0.000000


  49783.238501  -65312.804286  0.000000
  -65312.804286  -42797.156738  0.000000
  0.000000  0.000000  0.000000


  -532.905494  -33119.010794  0.000000
  -33119.010794  -27193.268869  0.000000
  0.000000  0.000000  0.000000


  86357.557622  -42557.979449  0.000000
  -42557.979449  -36963.055990  0.000000
  0.000000  0.000000  0.000000


  32231.689923  -41056.171649  0.000000
  -41056.171649  -49412.347385  0.000000
  0.000000  0.000000  0.000000


  42785.862340  -51245.125609  0.000000
  -51245.125609  -27217.523111  0.000000
  0.000000  0.000000  0.000000


  57610.158652  -32806.435527  0.000000
  -32806.435527  -38465.467617  0.000000
  0.000000  0.000000  0.000000


  26310.623896  -30516.286252  0.000000
  -30516.286252  -48036.304414  0.000000
  0.000000  0.000000  0.000000


  21128.679875  -53109.157008  0.000000
  -53109.157008  -31170.313976  0.000000
  0.000000  0.000000  0.000000


  6550.780556  -47301.203548  0.000000
  -47301.203548  -38727.720438  0.000000
  0.000000  0.000000  0.000000


  48172.132268  -17318.796956  0.000000
  -17318.796956  -50193.839883  0.000000
  0.000000  0.000000  0.000000


  -74475.188760  -59134.887364  0.000000
  -59134.887364  -14936.167259  0.000000
  0.000000  0.000000  0.000000


  -42360.584065  -16054.322619  0.000000
  -16054.322619  -3120.846712  0.000000
  0.000000  0.000000  0.000000


  69184.758526  -26629.079848  0.000000
  -26629.079848  -50064.179995  0.000000
  0.000000  0.000000  0.000000


  -50459.914496  -16271.297580  0.000000
  -16271.297580  39.590649  0.000000
  0.000000  0.000000  0.000000


  -60823.852057  -35894.448416  0.000000
  -35894.448416  -13719.752203  0.000000
  0.000000  0.000000  0.000000


  -27705.230834  -34664.614000  0.000000
  -34664.614000  -17651.515717  0.000000
  0.000000  0.000000  0.000000


  -30219.216454  -43930.234441  0.000000
  -43930.234441  205.529004  0.000000
  0.000000  0.000000  0.000000


  39735.686552  -14229.543422  0.000000
  -14229.543422  -47370.902676  0.000000
  0.000000  0.000000  0.000000


  -75142.233315  -24824.320333  0.000000
  -24824.320333  301.353284  0.000000
  0.000000  0.000000  0.000000


  -38472.493849  -52690.216923  0.000000
  -52690.216923  -22855.500708  0.000000
  0.000000  0.000000  0.000000


  -89883.566979  -45863.088678  0.000000
  -45863.088678  -15152.683591  0.000000
  0.000000  0.000000  0.000000


  30756.142612  -32669.031820  0.000000
  -32669.031820  -34309.767848  0.000000
  0.000000  0.000000  0.000000


  -22087.423455  -32293.228429  0.000000
  -32293.228429  -2648.169058  0.000000
  0.000000  0.000000  0.000000


  -40548.526979  -63392.367371  0.000000
  -63392.367371  -4651.020624  0.000000
  0.000000  0.000000  0.000000


  -23378.553833  -52978.503323  0.000000
  -52978.503323  -21156.222370  0.000000
  0.000000  0.000000  0.000000


  55.498990  -75011.689956  0.000000
  -75011.689956  -24745.886573  0.000000
  0.000000  0.000000  0.000000


  -6100.956448  -50351.239217  0.000000
  -50351.239217  -12384.723866  0.000000
  0.000000  0.000000  0.000000


  1818.371296  -39844.839819  0.000000
  -39844.839819  -25339.661429  0.000000
  0.000000  0.000000  0.000000

