# vtk DataFile Version 2.0
geometrically linear steady-state plane stress analysis
ASCII

DATASET UNSTRUCTURED_GRID
POINTS 147 double
  0.000000  0.300000  0.000000
  0.000000  0.250000  0.000000
  0.053234  0.342785  0.000000
  0.053364  0.248418  0.000000
  0.000000  0.200000  0.000000
  0.112592  0.324092  0.000000
  0.104364  0.244092  0.000000
  0.050866  0.197669  0.000000
  0.102108  0.194823  0.000000
  0.000000  0.150000  0.000000
  0.163574  0.315336  0.000000
  0.156007  0.239833  0.000000
  0.049649  0.147611  0.000000
  0.100020  0.144885  0.000000
  0.153079  0.190777  0.000000
  0.215606  0.305825  0.000000
  0.000000  0.100000  0.000000
  0.207695  0.234936  0.000000
  0.048782  0.097461  0.000000
  0.150176  0.140981  0.000000
  0.203930  0.185806  0.000000
  0.098188  0.095276  0.000000
  0.147291  0.090743  0.000000
  0.267431  0.295867  0.000000
  0.000000  0.050000  0.000000
  0.200173  0.135973  0.000000
  0.259308  0.229326  0.000000
  0.046159  0.054457  0.000000
  0.254700  0.180047  0.000000
  0.096114  0.043772  0.000000
  0.196370  0.085801  0.000000
  0.250141  0.130222  0.000000
  0.144298  0.040481  0.000000
  0.000000  0.000000  0.000000
  0.319065  0.285683  0.000000
  0.037967  -0.043740  0.000000
  0.310801  0.223009  0.000000
  0.091490  -0.035067  0.000000
  0.305411  0.173600  0.000000
  0.192694  0.035730  0.000000
  0.245549  0.080105  0.000000
  0.137817  -0.036046  0.000000
  0.300121  0.123784  0.000000
  0.370526  0.275411  0.000000
  0.362154  0.216039  0.000000
  0.241118  0.030112  0.000000
  0.185366  -0.037025  0.000000
  0.294813  0.073711  0.000000
  0.356063  0.166534  0.000000
  0.350113  0.116720  0.000000
  0.233170  -0.038724  0.000000
  0.289621  0.023710  0.000000
  0.421827  0.265153  0.000000
  0.344157  0.066678  0.000000
  0.413355  0.208491  0.000000
  0.406651  0.158920  0.000000
  0.281251  -0.041306  0.000000
  0.400114  0.109104  0.000000
  0.338240  0.016635  0.000000
  0.393576  0.059082  0.000000
  0.472969  0.254973  0.000000
  0.464397  0.200455  0.000000
  0.329599  -0.044880  0.000000
  0.457170  0.150836  0.000000
  0.387002  0.008997  0.000000
  0.450120  0.101016  0.000000
  0.443073  0.051010  0.000000
  0.523952  0.244915  0.000000
  0.378202  -0.049486  0.000000
  0.515281  0.192025  0.000000
  0.507616  0.142371  0.000000
  0.435930  0.000896  0.000000
  0.500130  0.092545  0.000000
  0.492646  0.042551  0.000000
  0.427042  -0.055094  0.000000
  0.574774  0.235001  0.000000
  0.566009  0.183296  0.000000
  0.485029  -0.007571  0.000000
  0.557992  0.133613  0.000000
  0.550144  0.083780  0.000000
  0.476097  -0.061611  0.000000
  0.542296  0.033797  0.000000
  0.625437  0.225239  0.000000
  0.616593  0.174354  0.000000
  0.534301  -0.016314  0.000000
  0.608301  0.124645  0.000000
  0.600162  0.074808  0.000000
  0.525346  -0.068905  0.000000
  0.592022  0.024837  0.000000
  0.675949  0.215631  0.000000
  0.583734  -0.025253  0.000000
  0.667045  0.165280  0.000000
  0.658549  0.115549  0.000000
  0.650185  0.065708  0.000000
  0.574767  -0.076818  0.000000
  0.641817  0.015750  0.000000
  0.633314  -0.034314  0.000000
  0.726321  0.206171  0.000000
  0.717384  0.156143  0.000000
  0.708746  0.106393  0.000000
  0.700215  0.056549  0.000000
  0.624341  -0.085193  0.000000
  0.691676  0.006603  0.000000
  0.683020  -0.043433  0.000000
  0.776569  0.196857  0.000000
  0.767627  0.147005  0.000000
  0.758900  0.097238  0.000000
  0.674047  -0.093883  0.000000
  0.750250  0.047390  0.000000
  0.741588  -0.002546  0.000000
  0.732831  -0.052557  0.000000
  0.826714  0.187686  0.000000
  0.817798  0.137915  0.000000
  0.809022  0.088131  0.000000
  0.723862  -0.102760  0.000000
  0.800291  0.038275  0.000000
  0.791543  -0.011655  0.000000
  0.782721  -0.061649  0.000000
  0.876784  0.178672  0.000000
  0.867917  0.128923  0.000000
  0.773762  -0.111724  0.000000
  0.859117  0.079109  0.000000
  0.850332  0.029235  0.000000
  0.841526  -0.020701  0.000000
  0.832666  -0.070685  0.000000
  0.926830  0.169859  0.000000
  0.823722  -0.120703  0.000000
  0.917995  0.120059  0.000000
  0.909184  0.070188  0.000000
  0.900365  0.020277  0.000000
  0.891524  -0.029676  0.000000
  0.882644  -0.079660  0.000000
  0.873716  -0.129659  0.000000
  0.928530  0.169595  0.000000
  0.968051  0.111271  0.000000
  0.959225  0.061337  0.000000
  0.950386  0.011382  0.000000
  0.941525  -0.038593  0.000000
  0.932637  -0.088585  0.000000
  0.923721  -0.138581  0.000000
  0.939841  0.167634  0.000000
  1.018090  0.102533  0.000000
  1.009249  0.052522  0.000000
  1.000398  0.002524  0.000000
  0.991527  -0.047477  0.000000
  0.982634  -0.097483  0.000000
  0.973723  -0.147485  0.000000

CELLS  240  960
  3  35  27  33
  3  27  24  33
  3  37  29  35
  3  29  27  35
  3  41  32  37
  3  32  29  37
  3  46  39  41
  3  39  32  41
  3  50  45  46
  3  45  39  46
  3  56  51  50
  3  51  45  50
  3  62  58  56
  3  58  51  56
  3  68  64  62
  3  64  58  62
  3  74  71  68
  3  71  64  68
  3  80  77  74
  3  77  71  74
  3  87  84  80
  3  84  77  80
  3  94  90  87
  3  90  84  87
  3  101  96  94
  3  96  90  94
  3  107  103  101
  3  103  96  101
  3  114  110  107
  3  110  103  107
  3  120  117  114
  3  117  110  114
  3  126  124  120
  3  124  117  120
  3  132  131  126
  3  131  124  126
  3  139  138  132
  3  138  131  132
  3  146  145  139
  3  145  138  139
  3  27  18  24
  3  18  16  24
  3  29  21  27
  3  21  18  27
  3  32  22  29
  3  22  21  29
  3  39  30  32
  3  30  22  32
  3  45  40  39
  3  40  30  39
  3  51  47  45
  3  47  40  45
  3  58  53  51
  3  53  47  51
  3  64  59  58
  3  59  53  58
  3  71  66  64
  3  66  59  64
  3  77  73  71
  3  73  66  71
  3  84  81  77
  3  81  73  77
  3  90  88  84
  3  88  81  84
  3  96  95  90
  3  95  88  90
  3  103  102  96
  3  102  95  96
  3  110  109  103
  3  109  102  103
  3  117  116  110
  3  116  109  110
  3  124  123  117
  3  123  116  117
  3  131  130  124
  3  130  123  124
  3  138  137  131
  3  137  130  131
  3  145  144  138
  3  144  137  138
  3  18  12  16
  3  12  9  16
  3  21  13  18
  3  13  12  18
  3  22  19  21
  3  19  13  21
  3  30  25  22
  3  25  19  22
  3  40  31  30
  3  31  25  30
  3  47  42  40
  3  42  31  40
  3  53  49  47
  3  49  42  47
  3  59  57  53
  3  57  49  53
  3  66  65  59
  3  65  57  59
  3  73  72  66
  3  72  65  66
  3  81  79  73
  3  79  72  73
  3  88  86  81
  3  86  79  81
  3  95  93  88
  3  93  86  88
  3  102  100  95
  3  100  93  95
  3  109  108  102
  3  108  100  102
  3  116  115  109
  3  115  108  109
  3  123  122  116
  3  122  115  116
  3  130  129  123
  3  129  122  123
  3  137  136  130
  3  136  129  130
  3  144  143  137
  3  143  136  137
  3  12  7  9
  3  7  4  9
  3  13  8  12
  3  8  7  12
  3  19  14  13
  3  14  8  13
  3  25  20  19
  3  20  14  19
  3  31  28  25
  3  28  20  25
  3  42  38  31
  3  38  28  31
  3  49  48  42
  3  48  38  42
  3  57  55  49
  3  55  48  49
  3  65  63  57
  3  63  55  57
  3  72  70  65
  3  70  63  65
  3  79  78  72
  3  78  70  72
  3  86  85  79
  3  85  78  79
  3  93  92  86
  3  92  85  86
  3  100  99  93
  3  99  92  93
  3  108  106  100
  3  106  99  100
  3  115  113  108
  3  113  106  108
  3  122  121  115
  3  121  113  115
  3  129  128  122
  3  128  121  122
  3  136  135  129
  3  135  128  129
  3  143  142  136
  3  142  135  136
  3  7  3  4
  3  3  1  4
  3  8  6  7
  3  6  3  7
  3  14  11  8
  3  11  6  8
  3  20  17  14
  3  17  11  14
  3  28  26  20
  3  26  17  20
  3  38  36  28
  3  36  26  28
  3  48  44  38
  3  44  36  38
  3  55  54  48
  3  54  44  48
  3  63  61  55
  3  61  54  55
  3  70  69  63
  3  69  61  63
  3  78  76  70
  3  76  69  70
  3  85  83  78
  3  83  76  78
  3  92  91  85
  3  91  83  85
  3  99  98  92
  3  98  91  92
  3  106  105  99
  3  105  98  99
  3  113  112  106
  3  112  105  106
  3  121  119  113
  3  119  112  113
  3  128  127  121
  3  127  119  121
  3  135  134  128
  3  134  127  128
  3  142  141  135
  3  141  134  135
  3  3  2  1
  3  2  0  1
  3  6  5  3
  3  5  2  3
  3  11  10  6
  3  10  5  6
  3  17  15  11
  3  15  10  11
  3  26  23  17
  3  23  15  17
  3  36  34  26
  3  34  23  26
  3  44  43  36
  3  43  34  36
  3  54  52  44
  3  52  43  44
  3  61  60  54
  3  60  52  54
  3  69  67  61
  3  67  60  61
  3  76  75  69
  3  75  67  69
  3  83  82  76
  3  82  75  76
  3  91  89  83
  3  89  82  83
  3  98  97  91
  3  97  89  91
  3  105  104  98
  3  104  97  98
  3  112  111  105
  3  111  104  105
  3  119  118  112
  3  118  111  112
  3  127  125  119
  3  125  118  119
  3  134  133  127
  3  133  125  127
  3  141  140  134
  3  140  133  134

CELL_TYPES 240
5
5
5
5
5
5
5
5
5
5
5
5
5
5
5
5
5
5
5
5
5
5
5
5
5
5
5
5
5
5
5
5
5
5
5
5
5
5
5
5
5
5
5
5
5
5
5
5
5
5
5
5
5
5
5
5
5
5
5
5
5
5
5
5
5
5
5
5
5
5
5
5
5
5
5
5
5
5
5
5
5
5
5
5
5
5
5
5
5
5
5
5
5
5
5
5
5
5
5
5
5
5
5
5
5
5
5
5
5
5
5
5
5
5
5
5
5
5
5
5
5
5
5
5
5
5
5
5
5
5
5
5
5
5
5
5
5
5
5
5
5
5
5
5
5
5
5
5
5
5
5
5
5
5
5
5
5
5
5
5
5
5
5
5
5
5
5
5
5
5
5
5
5
5
5
5
5
5
5
5
5
5
5
5
5
5
5
5
5
5
5
5
5
5
5
5
5
5
5
5
5
5
5
5
5
5
5
5
5
5
5
5
5
5
5
5
5
5
5
5
5
5
5
5
5
5
5
5
5
5
5
5
5
5
5
5
5
5
5
5

CELL_DATA 240
TENSORS strain double
  -0.092059  -0.007569  0.000000
  -0.007569  0.021235  0.000000
  0.000000  0.000000  0.000000

  -0.029364  -0.021348  0.000000
  -0.021348  0.000000  0.000000
  0.000000  0.000000  0.000000

  -0.056655  -0.002293  0.000000
  -0.002293  0.016652  0.000000
  0.000000  0.000000  0.000000

  -0.045517  -0.009502  0.000000
  -0.009502  0.021314  0.000000
  0.000000  0.000000  0.000000

  -0.059751  -0.004372  0.000000
  -0.004372  0.015569  0.000000
  0.000000  0.000000  0.000000

  -0.038350  -0.012094  0.000000
  -0.012094  0.016684  0.000000
  0.000000  0.000000  0.000000

  -0.056268  -0.004790  0.000000
  -0.004790  0.014356  0.000000
  0.000000  0.000000  0.000000

  -0.034853  -0.013137  0.000000
  -0.013137  0.015826  0.000000
  0.000000  0.000000  0.000000

  -0.052564  -0.005013  0.000000
  -0.005013  0.013123  0.000000
  0.000000  0.000000  0.000000

  -0.031646  -0.013539  0.000000
  -0.013539  0.014647  0.000000
  0.000000  0.000000  0.000000

  -0.048224  -0.004929  0.000000
  -0.004929  0.011867  0.000000
  0.000000  0.000000  0.000000

  -0.028686  -0.013293  0.000000
  -0.013293  0.013401  0.000000
  0.000000  0.000000  0.000000

  -0.043292  -0.004606  0.000000
  -0.004606  0.010571  0.000000
  0.000000  0.000000  0.000000

  -0.025779  -0.012517  0.000000
  -0.012517  0.012106  0.000000
  0.000000  0.000000  0.000000

  -0.037891  -0.004147  0.000000
  -0.004147  0.009226  0.000000
  0.000000  0.000000  0.000000

  -0.022818  -0.011351  0.000000
  -0.011351  0.010757  0.000000
  0.000000  0.000000  0.000000

  -0.032220  -0.003650  0.000000
  -0.003650  0.007845  0.000000
  0.000000  0.000000  0.000000

  -0.019771  -0.009951  0.000000
  -0.009951  0.009358  0.000000
  0.000000  0.000000  0.000000

  -0.026525  -0.003185  0.000000
  -0.003185  0.006460  0.000000
  0.000000  0.000000  0.000000

  -0.016673  -0.008466  0.000000
  -0.008466  0.007929  0.000000
  0.000000  0.000000  0.000000

  -0.021051  -0.002784  0.000000
  -0.002784  0.005117  0.000000
  0.000000  0.000000  0.000000

  -0.013607  -0.007014  0.000000
  -0.007014  0.006508  0.000000
  0.000000  0.000000  0.000000

  -0.016007  -0.002446  0.000000
  -0.002446  0.003865  0.000000
  0.000000  0.000000  0.000000

  -0.010676  -0.005668  0.000000
  -0.005668  0.005141  0.000000
  0.000000  0.000000  0.000000

  -0.011546  -0.002145  0.000000
  -0.002145  0.002745  0.000000
  0.000000  0.000000  0.000000

  -0.007986  -0.004460  0.000000
  -0.004460  0.003875  0.000000
  0.000000  0.000000  0.000000

  -0.007771  -0.001848  0.000000
  -0.001848  0.001790  0.000000
  0.000000  0.000000  0.000000

  -0.005627  -0.003391  0.000000
  -0.003391  0.002748  0.000000
  0.000000  0.000000  0.000000

  -0.004742  -0.001528  0.000000
  -0.001528  0.001025  0.000000
  0.000000  0.000000  0.000000

  -0.003667  -0.002447  0.000000
  -0.002447  0.001791  0.000000
  0.000000  0.000000  0.000000

  -0.002485  -0.001171  0.000000
  -0.001171  0.000464  0.000000
  0.000000  0.000000  0.000000

  -0.002147  -0.001621  0.000000
  -0.001621  0.001025  0.000000
  0.000000  0.000000  0.000000

  -0.000981  -0.000787  0.000000
  -0.000787  0.000110  0.000000
  0.000000  0.000000  0.000000

  -0.001080  -0.000915  0.000000
  -0.000915  0.000464  0.000000
  0.000000  0.000000  0.000000

  -0.000166  -0.000410  0.000000
  -0.000410  -0.000053  0.000000
  0.000000  0.000000  0.000000

  -0.000437  -0.000356  0.000000
  -0.000356  0.000110  0.000000
  0.000000  0.000000  0.000000

  0.000105  -0.000103  0.000000
  -0.000103  -0.000065  0.000000
  0.000000  0.000000  0.000000

  -0.000130  0.000009  0.000000
  0.000009  -0.000053  0.000000
  0.000000  0.000000  0.000000

  0.000034  0.000067  0.000000
  0.000067  0.000034  0.000000
  0.000000  0.000000  0.000000

  -0.000056  0.000161  0.000000
  0.000161  -0.000065  0.000000
  0.000000  0.000000  0.000000

  -0.031264  -0.014595  0.000000
  -0.014595  0.003114  0.000000
  0.000000  0.000000  0.000000

  -0.017389  -0.020010  0.000000
  -0.020010  0.000000  0.000000
  0.000000  0.000000  0.000000

  -0.046254  -0.012968  0.000000
  -0.012968  0.011656  0.000000
  0.000000  0.000000  0.000000

  -0.019293  -0.025882  0.000000
  -0.025882  0.004183  0.000000
  0.000000  0.000000  0.000000

  -0.038427  -0.009663  0.000000
  -0.009663  0.009701  0.000000
  0.000000  0.000000  0.000000

  -0.020944  -0.019249  0.000000
  -0.019249  0.011593  0.000000
  0.000000  0.000000  0.000000

  -0.034876  -0.009072  0.000000
  -0.009072  0.008306  0.000000
  0.000000  0.000000  0.000000

  -0.018269  -0.018062  0.000000
  -0.018062  0.009654  0.000000
  0.000000  0.000000  0.000000

  -0.031648  -0.008754  0.000000
  -0.008754  0.007044  0.000000
  0.000000  0.000000  0.000000

  -0.016215  -0.017069  0.000000
  -0.017069  0.008215  0.000000
  0.000000  0.000000  0.000000

  -0.028671  -0.008565  0.000000
  -0.008565  0.005976  0.000000
  0.000000  0.000000  0.000000

  -0.014398  -0.016204  0.000000
  -0.016204  0.006955  0.000000
  0.000000  0.000000  0.000000

  -0.025760  -0.008389  0.000000
  -0.008389  0.005073  0.000000
  0.000000  0.000000  0.000000

  -0.012730  -0.015330  0.000000
  -0.015330  0.005906  0.000000
  0.000000  0.000000  0.000000

  -0.022803  -0.008154  0.000000
  -0.008154  0.004287  0.000000
  0.000000  0.000000  0.000000

  -0.011138  -0.014363  0.000000
  -0.014363  0.005027  0.000000
  0.000000  0.000000  0.000000

  -0.019763  -0.007823  0.000000
  -0.007823  0.003571  0.000000
  0.000000  0.000000  0.000000

  -0.009580  -0.013262  0.000000
  -0.013262  0.004261  0.000000
  0.000000  0.000000  0.000000

  -0.016670  -0.007381  0.000000
  -0.007381  0.002892  0.000000
  0.000000  0.000000  0.000000

  -0.008047  -0.012027  0.000000
  -0.012027  0.003559  0.000000
  0.000000  0.000000  0.000000

  -0.013606  -0.006826  0.000000
  -0.006826  0.002233  0.000000
  0.000000  0.000000  0.000000

  -0.006551  -0.010680  0.000000
  -0.010680  0.002886  0.000000
  0.000000  0.000000  0.000000

  -0.010677  -0.006167  0.000000
  -0.006167  0.001597  0.000000
  0.000000  0.000000  0.000000

  -0.005123  -0.009260  0.000000
  -0.009260  0.002231  0.000000
  0.000000  0.000000  0.000000

  -0.007987  -0.005411  0.000000
  -0.005411  0.000999  0.000000
  0.000000  0.000000  0.000000

  -0.003800  -0.007803  0.000000
  -0.007803  0.001596  0.000000
  0.000000  0.000000  0.000000

  -0.005628  -0.004569  0.000000
  -0.004569  0.000467  0.000000
  0.000000  0.000000  0.000000

  -0.002619  -0.006340  0.000000
  -0.006340  0.000999  0.000000
  0.000000  0.000000  0.000000

  -0.003667  -0.003657  0.000000
  -0.003657  0.000031  0.000000
  0.000000  0.000000  0.000000

  -0.001617  -0.004900  0.000000
  -0.004900  0.000467  0.000000
  0.000000  0.000000  0.000000

  -0.002147  -0.002705  0.000000
  -0.002705  -0.000269  0.000000
  0.000000  0.000000  0.000000

  -0.000829  -0.003514  0.000000
  -0.003514  0.000031  0.000000
  0.000000  0.000000  0.000000

  -0.001080  -0.001774  0.000000
  -0.001774  -0.000402  0.000000
  0.000000  0.000000  0.000000

  -0.000292  -0.002235  0.000000
  -0.002235  -0.000269  0.000000
  0.000000  0.000000  0.000000

  -0.000437  -0.000957  0.000000
  -0.000957  -0.000356  0.000000
  0.000000  0.000000  0.000000

  -0.000020  -0.001142  0.000000
  -0.001142  -0.000402  0.000000
  0.000000  0.000000  0.000000

  -0.000130  -0.000367  0.000000
  -0.000367  -0.000183  0.000000
  0.000000  0.000000  0.000000

  0.000049  -0.000370  0.000000
  -0.000370  -0.000356  0.000000
  0.000000  0.000000  0.000000

  -0.000056  -0.000072  0.000000
  -0.000072  0.000123  0.000000
  0.000000  0.000000  0.000000

  -0.000005  0.000055  0.000000
  0.000055  -0.000183  0.000000
  0.000000  0.000000  0.000000

  -0.017194  -0.011255  0.000000
  -0.011255  0.000507  0.000000
  0.000000  0.000000  0.000000

  0.000287  -0.019754  0.000000
  -0.019754  0.000000  0.000000
  0.000000  0.000000  0.000000

  -0.019813  -0.013834  0.000000
  -0.013834  0.001909  0.000000
  0.000000  0.000000  0.000000

  0.000177  -0.023071  0.000000
  -0.023071  0.000502  0.000000
  0.000000  0.000000  0.000000

  -0.020867  -0.013070  0.000000
  -0.013070  0.002928  0.000000
  0.000000  0.000000  0.000000

  -0.000434  -0.022853  0.000000
  -0.022853  0.001901  0.000000
  0.000000  0.000000  0.000000

  -0.018271  -0.011719  0.000000
  -0.011719  0.002298  0.000000
  0.000000  0.000000  0.000000

  -0.000677  -0.020819  0.000000
  -0.020819  0.002922  0.000000
  0.000000  0.000000  0.000000

  -0.016213  -0.011131  0.000000
  -0.011131  0.001622  0.000000
  0.000000  0.000000  0.000000

  -0.000267  -0.019441  0.000000
  -0.019441  0.002304  0.000000
  0.000000  0.000000  0.000000

  -0.014395  -0.010809  0.000000
  -0.010809  0.001029  0.000000
  0.000000  0.000000  0.000000

  0.000093  -0.018349  0.000000
  -0.018349  0.001626  0.000000
  0.000000  0.000000  0.000000

  -0.012726  -0.010587  0.000000
  -0.010587  0.000545  0.000000
  0.000000  0.000000  0.000000

  0.000355  -0.017369  0.000000
  -0.017369  0.001030  0.000000
  0.000000  0.000000  0.000000

  -0.011133  -0.010346  0.000000
  -0.010346  0.000160  0.000000
  0.000000  0.000000  0.000000

  0.000524  -0.016367  0.000000
  -0.016367  0.000545  0.000000
  0.000000  0.000000  0.000000

  -0.009576  -0.010003  0.000000
  -0.010003  -0.000153  0.000000
  0.000000  0.000000  0.000000

  0.000622  -0.015258  0.000000
  -0.015258  0.000160  0.000000
  0.000000  0.000000  0.000000

  -0.008044  -0.009513  0.000000
  -0.009513  -0.000419  0.000000
  0.000000  0.000000  0.000000

  0.000673  -0.014004  0.000000
  -0.014004  -0.000153  0.000000
  0.000000  0.000000  0.000000

  -0.006549  -0.008858  0.000000
  -0.008858  -0.000661  0.000000
  0.000000  0.000000  0.000000

  0.000702  -0.012604  0.000000
  -0.012604  -0.000419  0.000000
  0.000000  0.000000  0.000000

  -0.005122  -0.008043  0.000000
  -0.008043  -0.000894  0.000000
  0.000000  0.000000  0.000000

  0.000727  -0.011083  0.000000
  -0.011083  -0.000661  0.000000
  0.000000  0.000000  0.000000

  -0.003799  -0.007082  0.000000
  -0.007082  -0.001118  0.000000
  0.000000  0.000000  0.000000

  0.000761  -0.009474  0.000000
  -0.009474  -0.000893  0.000000
  0.000000  0.000000  0.000000

  -0.002619  -0.005998  0.000000
  -0.005998  -0.001323  0.000000
  0.000000  0.000000  0.000000

  0.000811  -0.007815  0.000000
  -0.007815  -0.001118  0.000000
  0.000000  0.000000  0.000000

  -0.001616  -0.004817  0.000000
  -0.004817  -0.001475  0.000000
  0.000000  0.000000  0.000000

  0.000873  -0.006137  0.000000
  -0.006137  -0.001323  0.000000
  0.000000  0.000000  0.000000

  -0.000830  -0.003582  0.000000
  -0.003582  -0.001517  0.000000
  0.000000  0.000000  0.000000

  0.000919  -0.004477  0.000000
  -0.004477  -0.001475  0.000000
  0.000000  0.000000  0.000000

  -0.000292  -0.002370  0.000000
  -0.002370  -0.001375  0.000000
  0.000000  0.000000  0.000000

  0.000890  -0.002890  0.000000
  -0.002890  -0.001517  0.000000
  0.000000  0.000000  0.000000

  -0.000020  -0.001307  0.000000
  -0.001307  -0.000996  0.000000
  0.000000  0.000000  0.000000

  0.000710  -0.001483  0.000000
  -0.001483  -0.001375  0.000000
  0.000000  0.000000  0.000000

  0.000049  -0.000555  0.000000
  -0.000555  -0.000505  0.000000
  0.000000  0.000000  0.000000

  0.000425  -0.000497  0.000000
  -0.000497  -0.000996  0.000000
  0.000000  0.000000  0.000000

  -0.000005  -0.000162  0.000000
  -0.000162  0.000035  0.000000
  0.000000  0.000000  0.000000

  0.000109  0.000050  0.000000
  0.000050  -0.000504  0.000000
  0.000000  0.000000  0.000000

  0.000448  -0.010434  0.000000
  -0.010434  -0.003815  0.000000
  0.000000  0.000000  0.000000

  0.019091  -0.021675  0.000000
  -0.021675  0.000000  0.000000
  0.000000  0.000000  0.000000

  -0.000018  -0.012776  0.000000
  -0.012776  -0.004592  0.000000
  0.000000  0.000000  0.000000

  0.019510  -0.022975  0.000000
  -0.022975  -0.003676  0.000000
  0.000000  0.000000  0.000000

  -0.000538  -0.013018  0.000000
  -0.013018  -0.004306  0.000000
  0.000000  0.000000  0.000000

  0.018544  -0.022439  0.000000
  -0.022439  -0.004523  0.000000
  0.000000  0.000000  0.000000

  -0.000669  -0.012361  0.000000
  -0.012361  -0.004021  0.000000
  0.000000  0.000000  0.000000

  0.017214  -0.021173  0.000000
  -0.021173  -0.004290  0.000000
  0.000000  0.000000  0.000000

  -0.000257  -0.011667  0.000000
  -0.011667  -0.003996  0.000000
  0.000000  0.000000  0.000000

  0.015947  -0.019757  0.000000
  -0.019757  -0.004018  0.000000
  0.000000  0.000000  0.000000

  0.000102  -0.011207  0.000000
  -0.011207  -0.004023  0.000000
  0.000000  0.000000  0.000000

  0.014776  -0.018556  0.000000
  -0.018556  -0.003996  0.000000
  0.000000  0.000000  0.000000

  0.000363  -0.010870  0.000000
  -0.010870  -0.004030  0.000000
  0.000000  0.000000  0.000000

  0.013560  -0.017470  0.000000
  -0.017470  -0.004023  0.000000
  0.000000  0.000000  0.000000

  0.000531  -0.010546  0.000000
  -0.010546  -0.003988  0.000000
  0.000000  0.000000  0.000000

  0.012252  -0.016385  0.000000
  -0.016385  -0.004030  0.000000
  0.000000  0.000000  0.000000

  0.000628  -0.010152  0.000000
  -0.010152  -0.003896  0.000000
  0.000000  0.000000  0.000000

  0.010854  -0.015219  0.000000
  -0.015219  -0.003988  0.000000
  0.000000  0.000000  0.000000

  0.000678  -0.009635  0.000000
  -0.009635  -0.003766  0.000000
  0.000000  0.000000  0.000000

  0.009402  -0.013932  0.000000
  -0.013932  -0.003896  0.000000
  0.000000  0.000000  0.000000

  0.000706  -0.008971  0.000000
  -0.008971  -0.003619  0.000000
  0.000000  0.000000  0.000000

  0.007951  -0.012520  0.000000
  -0.012520  -0.003766  0.000000
  0.000000  0.000000  0.000000

  0.000730  -0.008159  0.000000
  -0.008159  -0.003475  0.000000
  0.000000  0.000000  0.000000

  0.006561  -0.011002  0.000000
  -0.011002  -0.003619  0.000000
  0.000000  0.000000  0.000000

  0.000763  -0.007211  0.000000
  -0.007211  -0.003348  0.000000
  0.000000  0.000000  0.000000

  0.005289  -0.009411  0.000000
  -0.009411  -0.003475  0.000000
  0.000000  0.000000  0.000000

  0.000812  -0.006146  0.000000
  -0.006146  -0.003242  0.000000
  0.000000  0.000000  0.000000

  0.004183  -0.007778  0.000000
  -0.007778  -0.003348  0.000000
  0.000000  0.000000  0.000000

  0.000873  -0.004982  0.000000
  -0.004982  -0.003133  0.000000
  0.000000  0.000000  0.000000

  0.003275  -0.006128  0.000000
  -0.006128  -0.003242  0.000000
  0.000000  0.000000  0.000000

  0.000919  -0.003740  0.000000
  -0.003740  -0.002942  0.000000
  0.000000  0.000000  0.000000

  0.002571  -0.004471  0.000000
  -0.004471  -0.003133  0.000000
  0.000000  0.000000  0.000000

  0.000890  -0.002477  0.000000
  -0.002477  -0.002539  0.000000
  0.000000  0.000000  0.000000

  0.001992  -0.002826  0.000000
  -0.002826  -0.002942  0.000000
  0.000000  0.000000  0.000000

  0.000710  -0.001322  0.000000
  -0.001322  -0.001783  0.000000
  0.000000  0.000000  0.000000

  0.001385  -0.001283  0.000000
  -0.001283  -0.002539  0.000000
  0.000000  0.000000  0.000000

  0.000425  -0.000508  0.000000
  -0.000508  -0.000896  0.000000
  0.000000  0.000000  0.000000

  0.000812  -0.000258  0.000000
  -0.000258  -0.001783  0.000000
  0.000000  0.000000  0.000000

  0.000109  -0.000109  0.000000
  -0.000109  -0.000042  0.000000
  0.000000  0.000000  0.000000

  0.000188  0.000278  0.000000
  0.000278  -0.000896  0.000000
  0.000000  0.000000  0.000000

  0.019167  -0.010451  0.000000
  -0.010451  -0.009405  0.000000
  0.000000  0.000000  0.000000

  0.041597  -0.026383  0.000000
  -0.026383  0.000000  0.000000
  0.000000  0.000000  0.000000

  0.019328  -0.011416  0.000000
  -0.011416  -0.011101  0.000000
  0.000000  0.000000  0.000000

  0.038907  -0.022389  0.000000
  -0.022389  -0.008803  0.000000
  0.000000  0.000000  0.000000

  0.018499  -0.011292  0.000000
  -0.011292  -0.010971  0.000000
  0.000000  0.000000  0.000000

  0.037091  -0.020609  0.000000
  -0.020609  -0.011035  0.000000
  0.000000  0.000000  0.000000

  0.017216  -0.010779  0.000000
  -0.010779  -0.010363  0.000000
  0.000000  0.000000  0.000000

  0.034652  -0.019232  0.000000
  -0.019232  -0.010990  0.000000
  0.000000  0.000000  0.000000

  0.015963  -0.010173  0.000000
  -0.010173  -0.009747  0.000000
  0.000000  0.000000  0.000000

  0.032147  -0.017975  0.000000
  -0.017975  -0.010391  0.000000
  0.000000  0.000000  0.000000

  0.014790  -0.009633  0.000000
  -0.009633  -0.009219  0.000000
  0.000000  0.000000  0.000000

  0.029616  -0.016789  0.000000
  -0.016789  -0.009766  0.000000
  0.000000  0.000000  0.000000

  0.013571  -0.009170  0.000000
  -0.009170  -0.008719  0.000000
  0.000000  0.000000  0.000000

  0.026973  -0.015623  0.000000
  -0.015623  -0.009229  0.000000
  0.000000  0.000000  0.000000

  0.012261  -0.008732  0.000000
  -0.008732  -0.008202  0.000000
  0.000000  0.000000  0.000000

  0.024152  -0.014419  0.000000
  -0.014419  -0.008724  0.000000
  0.000000  0.000000  0.000000

  0.010862  -0.008271  0.000000
  -0.008271  -0.007648  0.000000
  0.000000  0.000000  0.000000

  0.021166  -0.013146  0.000000
  -0.013146  -0.008203  0.000000
  0.000000  0.000000  0.000000

  0.009409  -0.007757  0.000000
  -0.007757  -0.007065  0.000000
  0.000000  0.000000  0.000000

  0.018087  -0.011805  0.000000
  -0.011805  -0.007648  0.000000
  0.000000  0.000000  0.000000

  0.007957  -0.007173  0.000000
  -0.007173  -0.006475  0.000000
  0.000000  0.000000  0.000000

  0.015024  -0.010412  0.000000
  -0.010412  -0.007065  0.000000
  0.000000  0.000000  0.000000

  0.006565  -0.006512  0.000000
  -0.006512  -0.005909  0.000000
  0.000000  0.000000  0.000000

  0.012096  -0.008994  0.000000
  -0.008994  -0.006475  0.000000
  0.000000  0.000000  0.000000

  0.005292  -0.005777  0.000000
  -0.005777  -0.005392  0.000000
  0.000000  0.000000  0.000000

  0.009408  -0.007577  0.000000
  -0.007577  -0.005909  0.000000
  0.000000  0.000000  0.000000

  0.004185  -0.004976  0.000000
  -0.004976  -0.004944  0.000000
  0.000000  0.000000  0.000000

  0.007047  -0.006183  0.000000
  -0.006183  -0.005392  0.000000
  0.000000  0.000000  0.000000

  0.003276  -0.004110  0.000000
  -0.004110  -0.004563  0.000000
  0.000000  0.000000  0.000000

  0.005078  -0.004821  0.000000
  -0.004821  -0.004944  0.000000
  0.000000  0.000000  0.000000

  0.002571  -0.003167  0.000000
  -0.003167  -0.004195  0.000000
  0.000000  0.000000  0.000000

  0.003544  -0.003469  0.000000
  -0.003469  -0.004563  0.000000
  0.000000  0.000000  0.000000

  0.001992  -0.002114  0.000000
  -0.002114  -0.003603  0.000000
  0.000000  0.000000  0.000000

  0.002461  -0.002053  0.000000
  -0.002053  -0.004194  0.000000
  0.000000  0.000000  0.000000

  0.001385  -0.001068  0.000000
  -0.001068  -0.002512  0.000000
  0.000000  0.000000  0.000000

  0.001491  -0.000575  0.000000
  -0.000575  -0.003603  0.000000
  0.000000  0.000000  0.000000

  0.000812  -0.000313  0.000000
  -0.000313  -0.001300  0.000000
  0.000000  0.000000  0.000000

  0.000948  0.000224  0.000000
  0.000224  -0.002512  0.000000
  0.000000  0.000000  0.000000

  0.000188  0.000100  0.000000
  0.000100  0.000184  0.000000
  0.000000  0.000000  0.000000

  0.000331  0.000771  0.000000
  0.000771  -0.001301  0.000000
  0.000000  0.000000  0.000000

  0.040857  -0.009306  0.000000
  -0.009306  -0.017177  0.000000
  0.000000  0.000000  0.000000

  0.109095  -0.043546  0.000000
  -0.043546  0.000000  0.000000
  0.000000  0.000000  0.000000

  0.039483  -0.009124  0.000000
  -0.009124  -0.019770  0.000000
  0.000000  0.000000  0.000000

  0.061175  -0.017778  0.000000
  -0.017778  -0.017772  0.000000
  0.000000  0.000000  0.000000

  0.037156  -0.008781  0.000000
  -0.008781  -0.018845  0.000000
  0.000000  0.000000  0.000000

  0.063234  -0.017515  0.000000
  -0.017515  -0.018994  0.000000
  0.000000  0.000000  0.000000

  0.034636  -0.008287  0.000000
  -0.008287  -0.017694  0.000000
  0.000000  0.000000  0.000000

  0.059238  -0.016626  0.000000
  -0.016626  -0.018371  0.000000
  0.000000  0.000000  0.000000

  0.032114  -0.007547  0.000000
  -0.007547  -0.016453  0.000000
  0.000000  0.000000  0.000000

  0.054636  -0.015491  0.000000
  -0.015491  -0.017329  0.000000
  0.000000  0.000000  0.000000

  0.029588  -0.006678  0.000000
  -0.006678  -0.015229  0.000000
  0.000000  0.000000  0.000000

  0.049622  -0.014070  0.000000
  -0.014070  -0.016194  0.000000
  0.000000  0.000000  0.000000

  0.026957  -0.005802  0.000000
  -0.005802  -0.014015  0.000000
  0.000000  0.000000  0.000000

  0.044264  -0.012434  0.000000
  -0.012434  -0.015062  0.000000
  0.000000  0.000000  0.000000

  0.024148  -0.005002  0.000000
  -0.005002  -0.012784  0.000000
  0.000000  0.000000  0.000000

  0.038678  -0.010720  0.000000
  -0.010720  -0.013918  0.000000
  0.000000  0.000000  0.000000

  0.021169  -0.004323  0.000000
  -0.004323  -0.011535  0.000000
  0.000000  0.000000  0.000000

  0.033010  -0.009047  0.000000
  -0.009047  -0.012735  0.000000
  0.000000  0.000000  0.000000

  0.018094  -0.003771  0.000000
  -0.003771  -0.010292  0.000000
  0.000000  0.000000  0.000000

  0.027430  -0.007492  0.000000
  -0.007492  -0.011515  0.000000
  0.000000  0.000000  0.000000

  0.015032  -0.003330  0.000000
  -0.003330  -0.009090  0.000000
  0.000000  0.000000  0.000000

  0.022105  -0.006097  0.000000
  -0.006097  -0.010285  0.000000
  0.000000  0.000000  0.000000

  0.012103  -0.002970  0.000000
  -0.002970  -0.007968  0.000000
  0.000000  0.000000  0.000000

  0.017182  -0.004872  0.000000
  -0.004872  -0.009088  0.000000
  0.000000  0.000000  0.000000

  0.009413  -0.002659  0.000000
  -0.002659  -0.006960  0.000000
  0.000000  0.000000  0.000000

  0.012778  -0.003808  0.000000
  -0.003808  -0.007967  0.000000
  0.000000  0.000000  0.000000

  0.007050  -0.002371  0.000000
  -0.002371  -0.006092  0.000000
  0.000000  0.000000  0.000000

  0.008968  -0.002887  0.000000
  -0.002887  -0.006960  0.000000
  0.000000  0.000000  0.000000

  0.005079  -0.002082  0.000000
  -0.002082  -0.005380  0.000000
  0.000000  0.000000  0.000000

  0.005796  -0.002083  0.000000
  -0.002083  -0.006092  0.000000
  0.000000  0.000000  0.000000

  0.003545  -0.001759  0.000000
  -0.001759  -0.004829  0.000000
  0.000000  0.000000  0.000000

  0.003291  -0.001356  0.000000
  -0.001356  -0.005380  0.000000
  0.000000  0.000000  0.000000

  0.002461  -0.001294  0.000000
  -0.001294  -0.004396  0.000000
  0.000000  0.000000  0.000000

  0.001531  -0.000612  0.000000
  -0.000612  -0.004829  0.000000
  0.000000  0.000000  0.000000

  0.001491  -0.000339  0.000000
  -0.000339  -0.003124  0.000000
  0.000000  0.000000  0.000000

  0.000914  0.000585  0.000000
  0.000585  -0.004397  0.000000
  0.000000  0.000000  0.000000

  0.000948  0.000397  0.000000
  0.000397  -0.002944  0.000000
  0.000000  0.000000  0.000000

  0.000334  0.003057  0.000000
  0.003057  -0.003126  0.000000
  0.000000  0.000000  0.000000

  0.000331  0.000429  0.000000
  0.000429  -0.001526  0.000000
  0.000000  0.000000  0.000000

  -0.000981  0.001033  0.000000
  0.001033  0.000087  0.000000
  0.000000  0.000000  0.000000
POINT_DATA 147
VECTORS displacements double
  0.000000  0.000000  0.000000
  0.000000  0.000000  0.000000
  0.005236  -0.004180  0.000000
  0.002131  -0.002703  0.000000
  0.000000  0.000000  0.000000
  0.008171  -0.007864  0.000000
  0.004019  -0.005972  0.000000
  0.000953  -0.002164  0.000000
  0.001941  -0.005408  0.000000
  0.000000  0.000000  0.000000
  0.010985  -0.011750  0.000000
  0.005860  -0.010093  0.000000
  0.000014  -0.001961  0.000000
  0.000032  -0.005166  0.000000
  0.002873  -0.009554  0.000000
  0.013604  -0.016494  0.000000
  0.000000  0.000000  0.000000
  0.007593  -0.015027  0.000000
  -0.000863  -0.001987  0.000000
  0.000020  -0.009335  0.000000
  0.003733  -0.014522  0.000000
  -0.001820  -0.005261  0.000000
  -0.002885  -0.009483  0.000000
  0.015944  -0.021990  0.000000
  0.000000  0.000000  0.000000
  -0.000015  -0.014320  0.000000
  0.009207  -0.020717  0.000000
  -0.001396  -0.002030  0.000000
  0.004527  -0.020240  0.000000
  -0.004145  -0.005873  0.000000
  -0.003798  -0.014433  0.000000
  -0.000031  -0.020040  0.000000
  -0.006018  -0.009977  0.000000
  0.000000  0.000000  0.000000
  0.018012  -0.028194  0.000000
  -0.006169  -0.003845  0.000000
  0.010694  -0.027102  0.000000
  -0.008645  -0.007156  0.000000
  0.005262  -0.026648  0.000000
  -0.007755  -0.014872  0.000000
  -0.004609  -0.020120  0.000000
  -0.011366  -0.011061  0.000000
  -0.000029  -0.026447  0.000000
  0.019819  -0.035043  0.000000
  0.012047  -0.034114  0.000000
  -0.009336  -0.020502  0.000000
  -0.013859  -0.015787  0.000000
  -0.005331  -0.026498  0.000000
  0.005936  -0.033681  0.000000
  -0.000015  -0.033480  0.000000
  -0.016111  -0.021266  0.000000
  -0.010776  -0.026827  0.000000
  0.021378  -0.042462  0.000000
  -0.005970  -0.033507  0.000000
  0.013256  -0.041674  0.000000
  0.006545  -0.041265  0.000000
  -0.018112  -0.027462  0.000000
  0.000008  -0.041066  0.000000
  -0.012076  -0.033786  0.000000
  -0.006530  -0.041074  0.000000
  0.022702  -0.050367  0.000000
  0.014313  -0.049701  0.000000
  -0.019860  -0.034313  0.000000
  0.007083  -0.049319  0.000000
  -0.013231  -0.041307  0.000000
  0.000035  -0.049124  0.000000
  -0.007013  -0.049116  0.000000
  0.023804  -0.058672  0.000000
  -0.021362  -0.041743  0.000000
  0.015214  -0.058108  0.000000
  0.007549  -0.057755  0.000000
  -0.014232  -0.049307  0.000000
  0.000065  -0.057567  0.000000
  -0.007419  -0.057546  0.000000
  -0.022626  -0.049665  0.000000
  0.024699  -0.067289  0.000000
  0.015961  -0.066810  0.000000
  -0.015076  -0.057697  0.000000
  0.007942  -0.066486  0.000000
  0.000096  -0.066305  0.000000
  -0.023666  -0.057987  0.000000
  -0.007751  -0.066272  0.000000
  0.025404  -0.076132  0.000000
  0.016561  -0.075724  0.000000
  -0.015765  -0.066387  0.000000
  0.008266  -0.075428  0.000000
  0.000128  -0.075255  0.000000
  -0.024498  -0.066616  0.000000
  -0.008010  -0.075210  0.000000
  0.025936  -0.085124  0.000000
  -0.016304  -0.075291  0.000000
  0.017027  -0.084772  0.000000
  0.008527  -0.084503  0.000000
  0.000163  -0.084336  0.000000
  -0.025138  -0.075466  0.000000
  -0.008203  -0.084280  0.000000
  -0.016707  -0.084330  0.000000
  0.026316  -0.094194  0.000000
  0.017376  -0.093888  0.000000
  0.008734  -0.093642  0.000000
  0.000201  -0.093480  0.000000
  -0.025608  -0.084456  0.000000
  -0.008336  -0.093414  0.000000
  -0.016990  -0.093437  0.000000
  0.026565  -0.103282  0.000000
  0.017627  -0.103012  0.000000
  0.008895  -0.102784  0.000000
  -0.025930  -0.093521  0.000000
  0.000243  -0.102628  0.000000
  -0.008418  -0.102554  0.000000
  -0.017174  -0.102556  0.000000
  0.026709  -0.112334  0.000000
  0.017802  -0.112091  0.000000
  0.009022  -0.111882  0.000000
  -0.026130  -0.102605  0.000000
  0.000288  -0.111735  0.000000
  -0.008461  -0.111659  0.000000
  -0.017282  -0.111646  0.000000
  0.026777  -0.121299  0.000000
  0.017924  -0.121077  0.000000
  -0.026237  -0.111668  0.000000
  0.009120  -0.120897  0.000000
  0.000332  -0.120771  0.000000
  -0.008476  -0.120703  0.000000
  -0.017336  -0.120682  0.000000
  0.026820  -0.130098  0.000000
  -0.026279  -0.120688  0.000000
  0.017999  -0.129940  0.000000
  0.009189  -0.129814  0.000000
  0.000366  -0.129726  0.000000
  -0.008477  -0.129676  0.000000
  -0.017358  -0.129658  0.000000
  -0.026285  -0.129656  0.000000
  0.026825  -0.130387  0.000000
  0.018046  -0.138729  0.000000
  0.009229  -0.138663  0.000000
  0.000387  -0.138618  0.000000
  -0.008475  -0.138593  0.000000
  -0.017364  -0.138584  0.000000
  -0.026279  -0.138581  0.000000
  0.026812  -0.132342  0.000000
  0.018064  -0.147473  0.000000
  0.009239  -0.147479  0.000000
  0.000393  -0.147476  0.000000
  -0.008475  -0.147477  0.000000
  -0.017367  -0.147483  0.000000
  -0.026277  -0.147485  0.000000

CELL_DATA 240
TENSORS stress double
  -20073.229442  -1192.447271  0.000000
  -1192.447271  -2224.960319  0.000000
  0.000000  0.000000  0.000000


  -6935.508234  -3363.149990  0.000000
  -3363.149990  -2309.524242  0.000000
  0.000000  0.000000  0.000000


  -12071.775717  -361.186211  0.000000
  -361.186211  -522.941585  0.000000
  0.000000  0.000000  0.000000


  -9074.358248  -1496.953882  0.000000
  -1496.953882  1454.163479  0.000000
  0.000000  0.000000  0.000000


  -12888.224345  -688.749331  0.000000
  -688.749331  -1022.316260  0.000000
  0.000000  0.000000  0.000000


  -7745.732954  -1905.313562  0.000000
  -1905.313562  924.221599  0.000000
  0.000000  0.000000  0.000000


  -12160.935289  -754.666991  0.000000
  -754.666991  -1034.858802  0.000000
  0.000000  0.000000  0.000000


  -6987.071172  -2069.569166  0.000000
  -2069.569166  996.867910  0.000000
  0.000000  0.000000  0.000000


  -11383.089322  -789.725429  0.000000
  -789.725429  -1034.843457  0.000000
  0.000000  0.000000  0.000000


  -6322.437863  -2132.900679  0.000000
  -2132.900679  970.408273  0.000000
  0.000000  0.000000  0.000000


  -10456.789700  -776.469764  0.000000
  -776.469764  -989.977444  0.000000
  0.000000  0.000000  0.000000


  -5721.262154  -2094.190567  0.000000
  -2094.190567  908.999366  0.000000
  0.000000  0.000000  0.000000


  -9393.835179  -725.651971  0.000000
  -725.651971  -908.171749  0.000000
  0.000000  0.000000  0.000000


  -5136.685572  -1971.842590  0.000000
  -1971.842590  831.646721  0.000000
  0.000000  0.000000  0.000000


  -8223.836047  -653.305103  0.000000
  -653.305103  -801.022606  0.000000
  0.000000  0.000000  0.000000


  -4543.431594  -1788.176045  0.000000
  -1788.176045  745.969425  0.000000
  0.000000  0.000000  0.000000


  -6993.088382  -574.950714  0.000000
  -574.950714  -681.328760  0.000000
  0.000000  0.000000  0.000000


  -3933.828687  -1567.669551  0.000000
  -1567.669551  655.155803  0.000000
  0.000000  0.000000  0.000000


  -5756.922006  -501.705701  0.000000
  -501.705701  -560.531589  0.000000
  0.000000  0.000000  0.000000


  -3314.512763  -1333.705080  0.000000
  -1333.705080  561.324996  0.000000
  0.000000  0.000000  0.000000


  -4569.650017  -438.632801  0.000000
  -438.632801  -447.093507  0.000000
  0.000000  0.000000  0.000000


  -2701.922510  -1104.912036  0.000000
  -1104.912036  466.917984  0.000000
  0.000000  0.000000  0.000000


  -3476.653595  -385.325847  0.000000
  -385.325847  -346.098713  0.000000
  0.000000  0.000000  0.000000


  -2117.171025  -892.951110  0.000000
  -892.951110  374.680472  0.000000
  0.000000  0.000000  0.000000


  -2511.095381  -337.867798  0.000000
  -337.867798  -259.778068  0.000000
  0.000000  0.000000  0.000000


  -1581.454215  -702.682519  0.000000
  -702.682519  287.180816  0.000000
  0.000000  0.000000  0.000000


  -1694.602998  -291.110546  0.000000
  -291.110546  -188.367688  0.000000
  0.000000  0.000000  0.000000


  -1112.936162  -534.202458  0.000000
  -534.202458  206.547763  0.000000
  0.000000  0.000000  0.000000


  -1039.505750  -240.673572  0.000000
  -240.673572  -130.883578  0.000000
  0.000000  0.000000  0.000000


  -725.201886  -385.573513  0.000000
  -385.573513  134.611226  0.000000
  0.000000  0.000000  0.000000


  -550.309623  -184.515473  0.000000
  -184.515473  -85.730698  0.000000
  0.000000  0.000000  0.000000


  -426.487028  -255.322339  0.000000
  -255.322339  73.261658  0.000000
  0.000000  0.000000  0.000000


  -223.163018  -124.032267  0.000000
  -124.032267  -51.205437  0.000000
  0.000000  0.000000  0.000000


  -218.561626  -144.218191  0.000000
  -144.218191  24.733493  0.000000
  0.000000  0.000000  0.000000


  -43.348615  -64.541323  0.000000
  -64.541323  -25.588596  0.000000
  0.000000  0.000000  0.000000


  -94.647262  -56.013316  0.000000
  -56.013316  -8.413262  0.000000
  0.000000  0.000000  0.000000


  19.733805  -16.176893  0.000000
  -16.176893  -7.030504  0.000000
  0.000000  0.000000  0.000000


  -34.948493  1.446912  0.000000
  1.446912  -22.794065  0.000000
  0.000000  0.000000  0.000000


  10.557594  10.557611  0.000000
  10.557611  10.557628  0.000000
  0.000000  0.000000  0.000000


  -18.321638  25.354017  0.000000
  25.354017  -19.704392  0.000000
  0.000000  0.000000  0.000000


  -7139.435224  -2299.313921  0.000000
  -2299.313921  -1723.580158  0.000000
  0.000000  0.000000  0.000000


  -4107.154095  -3152.322638  0.000000
  -3152.322638  -1367.682314  0.000000
  0.000000  0.000000  0.000000


  -10008.106510  -2042.964521  0.000000
  -2042.964521  -885.026024  0.000000
  0.000000  0.000000  0.000000


  -4227.696119  -4077.489596  0.000000
  -4077.489596  -529.334052  0.000000
  0.000000  0.000000  0.000000


  -8313.154147  -1522.368594  0.000000
  -1522.368594  -731.099539  0.000000
  0.000000  0.000000  0.000000


  -4035.026809  -3032.419070  0.000000
  -3032.419070  1090.855701  0.000000
  0.000000  0.000000  0.000000


  -7584.115674  -1429.262935  0.000000
  -1429.262935  -781.342374  0.000000
  0.000000  0.000000  0.000000


  -3555.722178  -2845.432067  0.000000
  -2845.432067  843.230146  0.000000
  0.000000  0.000000  0.000000


  -6920.958967  -1379.136064  0.000000
  -1379.136064  -825.403376  0.000000
  0.000000  0.000000  0.000000


  -3183.741547  -2689.000900  0.000000
  -2689.000900  664.931629  0.000000
  0.000000  0.000000  0.000000


  -6301.773082  -1349.341262  0.000000
  -1349.341262  -843.633896  0.000000
  0.000000  0.000000  0.000000


  -2853.678073  -2552.772653  0.000000
  -2552.772653  510.244294  0.000000
  0.000000  0.000000  0.000000


  -5685.301208  -1321.529502  0.000000
  -1321.529502  -827.924622  0.000000
  0.000000  0.000000  0.000000


  -2542.204743  -2415.083882  0.000000
  -2415.083882  393.709151  0.000000
  0.000000  0.000000  0.000000


  -5048.715836  -1284.604587  0.000000
  -1284.604587  -780.917261  0.000000
  0.000000  0.000000  0.000000


  -2235.275832  -2262.700629  0.000000
  -2262.700629  311.315728  0.000000
  0.000000  0.000000  0.000000


  -4386.898609  -1232.477493  0.000000
  -1232.477493  -710.833345  0.000000
  0.000000  0.000000  0.000000


  -1927.611478  -2089.326951  0.000000
  -2089.326951  252.928365  0.000000
  0.000000  0.000000  0.000000


  -3709.896427  -1162.733741  0.000000
  -1162.733741  -628.125634  0.000000
  0.000000  0.000000  0.000000


  -1620.627457  -1894.671917  0.000000
  -1894.671917  207.636334  0.000000
  0.000000  0.000000  0.000000


  -3038.074041  -1075.359482  0.000000
  -1075.359482  -542.804242  0.000000
  0.000000  0.000000  0.000000


  -1320.233822  -1682.585287  0.000000
  -1682.585287  166.507458  0.000000
  0.000000  0.000000  0.000000


  -2396.137914  -971.476844  0.000000
  -971.476844  -462.616972  0.000000
  0.000000  0.000000  0.000000


  -1034.552937  -1458.828336  0.000000
  -1458.828336  123.992328  0.000000
  0.000000  0.000000  0.000000


  -1807.839628  -852.470964  0.000000
  -852.470964  -392.143806  0.000000
  0.000000  0.000000  0.000000


  -771.965421  -1229.236258  0.000000
  -1229.236258  78.146310  0.000000
  0.000000  0.000000  0.000000


  -1292.538171  -719.858870  0.000000
  -719.858870  -332.447846  0.000000
  0.000000  0.000000  0.000000


  -539.967525  -998.796436  0.000000
  -998.796436  30.052792  0.000000
  0.000000  0.000000  0.000000


  -863.672771  -576.092338  0.000000
  -576.092338  -281.050960  0.000000
  0.000000  0.000000  0.000000


  -345.112279  -771.882174  0.000000
  -771.882174  -16.951277  0.000000
  0.000000  0.000000  0.000000


  -528.315690  -426.179297  0.000000
  -426.179297  -232.487581  0.000000
  0.000000  0.000000  0.000000


  -193.464325  -553.630361  0.000000
  -553.630361  -57.873338  0.000000
  0.000000  0.000000  0.000000


  -286.734755  -279.517511  0.000000
  -279.517511  -180.001222  0.000000
  0.000000  0.000000  0.000000


  -90.160633  -352.064004  0.000000
  -352.064004  -86.585566  0.000000
  0.000000  0.000000  0.000000


  -131.308674  -150.727649  0.000000
  -150.727649  -118.523909  0.000000
  0.000000  0.000000  0.000000


  -36.492817  -179.913745  0.000000
  -179.913745  -96.671328  0.000000
  0.000000  0.000000  0.000000


  -45.155485  -57.776178  0.000000
  -57.776178  -53.451737  0.000000
  0.000000  0.000000  0.000000


  -16.469765  -58.239571  0.000000
  -58.239571  -80.279296  0.000000
  0.000000  0.000000  0.000000


  -3.576776  -11.340930  0.000000
  -11.340930  24.570053  0.000000
  0.000000  0.000000  0.000000


  -15.655748  8.742479  0.000000
  8.742479  -43.625198  0.000000
  0.000000  0.000000  0.000000


  -4021.325930  -1773.149034  0.000000
  -1773.149034  -1232.725433  0.000000
  0.000000  0.000000  0.000000


  67.786029  -3112.027665  0.000000
  -3112.027665  22.572748  0.000000
  0.000000  0.000000  0.000000


  -4529.521939  -2179.469690  0.000000
  -2179.469690  -1107.508302  0.000000
  0.000000  0.000000  0.000000


  81.326223  -3634.608911  0.000000
  -3634.608911  132.413723  0.000000
  0.000000  0.000000  0.000000


  -4698.350251  -2059.073722  0.000000
  -2059.073722  -949.675400  0.000000
  0.000000  0.000000  0.000000


  47.084487  -3600.315315  0.000000
  -3600.315315  414.979346  0.000000
  0.000000  0.000000  0.000000


  -4134.718172  -1846.227805  0.000000
  -1846.227805  -894.378701  0.000000
  0.000000  0.000000  0.000000


  69.893165  -3279.820489  0.000000
  -3279.820489  636.843091  0.000000
  0.000000  0.000000  0.000000


  -3701.750033  -1753.519387  0.000000
  -1753.519387  -891.973191  0.000000
  0.000000  0.000000  0.000000


  118.169730  -3062.670530  0.000000
  -3062.670530  523.155706  0.000000
  0.000000  0.000000  0.000000


  -3318.937886  -1702.772905  0.000000
  -1702.772905  -889.155657  0.000000
  0.000000  0.000000  0.000000


  149.846009  -2890.680441  0.000000
  -2890.680441  391.423727  0.000000
  0.000000  0.000000  0.000000


  -2962.796922  -1667.943222  0.000000
  -1667.943222  -872.138705  0.000000
  0.000000  0.000000  0.000000


  164.856004  -2736.347152  0.000000
  -2736.347152  271.274873  0.000000
  0.000000  0.000000  0.000000


  -2617.022035  -1629.902731  0.000000
  -1629.902731  -837.944278  0.000000
  0.000000  0.000000  0.000000


  166.624262  -2578.425995  0.000000
  -2578.425995  170.033441  0.000000
  0.000000  0.000000  0.000000


  -2273.814332  -1575.866022  0.000000
  -1575.866022  -789.226903  0.000000
  0.000000  0.000000  0.000000


  159.349200  -2403.659987  0.000000
  -2403.659987  86.587225  0.000000
  0.000000  0.000000  0.000000


  -1932.742314  -1498.614944  0.000000
  -1498.614944  -731.536909  0.000000
  0.000000  0.000000  0.000000


  146.992736  -2206.123584  0.000000
  -2206.123584  16.906544  0.000000
  0.000000  0.000000  0.000000


  -1598.793230  -1395.483637  0.000000
  -1395.483637  -671.242476  0.000000
  0.000000  0.000000  0.000000


  132.893053  -1985.680342  0.000000
  -1985.680342  -43.656611  0.000000
  0.000000  0.000000  0.000000


  -1280.039645  -1267.033586  0.000000
  -1267.033586  -613.894303  0.000000
  0.000000  0.000000  0.000000


  119.691179  -1746.002828  0.000000
  -1746.002828  -98.956874  0.000000
  0.000000  0.000000  0.000000


  -985.346284  -1115.707251  0.000000
  -1115.707251  -562.953826  0.000000
  0.000000  0.000000  0.000000


  109.436767  -1492.584363  0.000000
  -1492.584363  -151.175466  0.000000
  0.000000  0.000000  0.000000


  -722.601841  -944.885431  0.000000
  -944.885431  -518.506819  0.000000
  0.000000  0.000000  0.000000


  103.559567  -1231.149445  0.000000
  -1231.149445  -200.337342  0.000000
  0.000000  0.000000  0.000000


  -497.831317  -758.849410  0.000000
  -758.849410  -475.584266  0.000000
  0.000000  0.000000  0.000000


  102.075731  -966.883901  0.000000
  -966.883901  -243.887801  0.000000
  0.000000  0.000000  0.000000


  -315.199539  -564.352174  0.000000
  -564.352174  -423.436238  0.000000
  0.000000  0.000000  0.000000


  101.044098  -705.323489  0.000000
  -705.323489  -276.159744  0.000000
  0.000000  0.000000  0.000000


  -177.091055  -373.436547  0.000000
  -373.436547  -347.629601  0.000000
  0.000000  0.000000  0.000000


  90.970919  -455.366387  0.000000
  -455.366387  -288.178603  0.000000
  0.000000  0.000000  0.000000


  -83.214884  -205.833364  0.000000
  -205.833364  -236.973410  0.000000
  0.000000  0.000000  0.000000


  59.499356  -233.560486  0.000000
  -233.560486  -268.835712  0.000000
  0.000000  0.000000  0.000000


  -28.139373  -87.398733  0.000000
  -87.398733  -115.320519  0.000000
  0.000000  0.000000  0.000000


  21.905558  -78.240954  0.000000
  -78.240954  -201.956807  0.000000
  0.000000  0.000000  0.000000


  1.462181  -25.531677  0.000000
  -25.531677  7.779133  0.000000
  0.000000  0.000000  0.000000


  -13.979059  7.943057  0.000000
  7.943057  -110.597854  0.000000
  0.000000  0.000000  0.000000


  -194.239662  -1643.712416  0.000000
  -1643.712416  -865.789917  0.000000
  0.000000  0.000000  0.000000


  4509.236175  -3414.626277  0.000000
  -3414.626277  1501.575646  0.000000
  0.000000  0.000000  0.000000


  -365.387550  -2012.785481  0.000000
  -2012.785481  -1085.998943  0.000000
  0.000000  0.000000  0.000000


  4318.999400  -3619.527734  0.000000
  -3619.527734  666.178574  0.000000
  0.000000  0.000000  0.000000


  -465.656972  -2050.905445  0.000000
  -2050.905445  -1059.338310  0.000000
  0.000000  0.000000  0.000000


  4024.234359  -3534.999664  0.000000
  -3534.999664  390.223405  0.000000
  0.000000  0.000000  0.000000


  -474.331789  -1947.287069  0.000000
  -1947.287069  -1002.305517  0.000000
  0.000000  0.000000  0.000000


  3728.464024  -3335.603965  0.000000
  -3335.603965  340.725655  0.000000
  0.000000  0.000000  0.000000


  -375.074395  -1838.017338  0.000000
  -1838.017338  -964.151475  0.000000
  0.000000  0.000000  0.000000


  3450.550867  -3112.486861  0.000000
  -3112.486861  305.197568  0.000000
  0.000000  0.000000  0.000000


  -292.364573  -1765.492130  0.000000
  -1765.492130  -942.195714  0.000000
  0.000000  0.000000  0.000000


  3175.612431  -2923.253614  0.000000
  -2923.253614  218.296688  0.000000
  0.000000  0.000000  0.000000


  -231.247848  -1712.409593  0.000000
  -1712.409593  -923.224119  0.000000
  0.000000  0.000000  0.000000


  2886.327856  -2752.284843  0.000000
  -2752.284843  116.249452  0.000000
  0.000000  0.000000  0.000000


  -188.286977  -1661.436143  0.000000
  -1661.436143  -900.191777  0.000000
  0.000000  0.000000  0.000000


  2576.848573  -2581.294966  0.000000
  -2581.294966  11.828943  0.000000
  0.000000  0.000000  0.000000


  -158.193434  -1599.335415  0.000000
  -1599.335415  -870.823061  0.000000
  0.000000  0.000000  0.000000


  2249.926496  -2397.518217  0.000000
  -2397.518217  -88.263358  0.000000
  0.000000  0.000000  0.000000


  -136.045473  -1517.866047  0.000000
  -1517.866047  -836.202278  0.000000
  0.000000  0.000000  0.000000


  1914.245399  -2194.770213  0.000000
  -2194.770213  -180.670223  0.000000
  0.000000  0.000000  0.000000


  -117.917496  -1413.300354  0.000000
  -1413.300354  -799.245779  0.000000
  0.000000  0.000000  0.000000


  1581.682928  -1972.350937  0.000000
  -1972.350937  -264.166216  0.000000
  0.000000  0.000000  0.000000


  -100.971924  -1285.382698  0.000000
  -1285.382698  -763.299577  0.000000
  0.000000  0.000000  0.000000


  1264.939986  -1733.314411  0.000000
  -1733.314411  -338.733915  0.000000
  0.000000  0.000000  0.000000


  -83.236588  -1136.061848  0.000000
  -1136.061848  -730.855996  0.000000
  0.000000  0.000000  0.000000


  975.870962  -1482.623123  0.000000
  -1482.623123  -404.703889  0.000000
  0.000000  0.000000  0.000000


  -63.274726  -968.247248  0.000000
  -968.247248  -701.963368  0.000000
  0.000000  0.000000  0.000000


  724.539081  -1225.410032  0.000000
  -1225.410032  -461.866981  0.000000
  0.000000  0.000000  0.000000


  -40.142638  -784.878060  0.000000
  -784.878060  -671.286275  0.000000
  0.000000  0.000000  0.000000


  518.542049  -965.446911  0.000000
  -965.446911  -508.218252  0.000000
  0.000000  0.000000  0.000000


  -14.241332  -589.256581  0.000000
  -589.256581  -622.501654  0.000000
  0.000000  0.000000  0.000000


  360.831683  -704.294080  0.000000
  -704.294080  -537.754296  0.000000
  0.000000  0.000000  0.000000


  10.587984  -390.262088  0.000000
  -390.262088  -529.619989  0.000000
  0.000000  0.000000  0.000000


  239.019024  -445.275278  0.000000
  -445.275278  -538.145486  0.000000
  0.000000  0.000000  0.000000


  27.358308  -208.334547  0.000000
  -208.334547  -365.368808  0.000000
  0.000000  0.000000  0.000000


  127.557131  -202.060179  0.000000
  -202.060179  -490.633961  0.000000
  0.000000  0.000000  0.000000


  29.822920  -79.978520  0.000000
  -79.978520  -178.180402  0.000000
  0.000000  0.000000  0.000000


  51.612273  -40.625357  0.000000
  -40.625357  -357.262266  0.000000
  0.000000  0.000000  0.000000


  22.381816  -17.125710  0.000000
  -17.125710  -1.406002  0.000000
  0.000000  0.000000  0.000000


  -25.976194  43.827761  0.000000
  43.827761  -196.745575  0.000000
  0.000000  0.000000  0.000000


  3787.335029  -1646.475209  0.000000
  -1646.475209  -713.825899  0.000000
  0.000000  0.000000  0.000000


  9824.735270  -4156.311568  0.000000
  -4156.311568  3271.636845  0.000000
  0.000000  0.000000  0.000000


  3691.982569  -1798.436050  0.000000
  -1798.436050  -1101.712719  0.000000
  0.000000  0.000000  0.000000


  8497.184271  -3527.116229  0.000000
  -3527.116229  980.859097  0.000000
  0.000000  0.000000  0.000000


  3506.477424  -1778.925277  0.000000
  -1778.925277  -1136.266196  0.000000
  0.000000  0.000000  0.000000


  7892.514533  -3246.665846  0.000000
  -3246.665846  310.775595  0.000000
  0.000000  0.000000  0.000000


  3251.055781  -1698.106470  0.000000
  -1698.106470  -1093.732400  0.000000
  0.000000  0.000000  0.000000


  7320.087321  -3029.787533  0.000000
  -3029.787533  129.685577  0.000000
  0.000000  0.000000  0.000000


  3003.737293  -1602.704324  0.000000
  -1602.704324  -1046.602353  0.000000
  0.000000  0.000000  0.000000


  6775.569094  -2831.804300  0.000000
  -2831.804300  74.125608  0.000000
  0.000000  0.000000  0.000000


  2768.102037  -1517.587859  0.000000
  -1517.587859  -1014.107633  0.000000
  0.000000  0.000000  0.000000


  6226.903247  -2644.943266  0.000000
  -2644.943266  22.636778  0.000000
  0.000000  0.000000  0.000000


  2519.558932  -1444.605684  0.000000
  -1444.605684  -992.057484  0.000000
  0.000000  0.000000  0.000000


  5644.882355  -2461.306793  0.000000
  -2461.306793  -58.296179  0.000000
  0.000000  0.000000  0.000000


  2250.907626  -1375.555140  0.000000
  -1375.555140  -972.825999  0.000000
  0.000000  0.000000  0.000000


  5018.435745  -2271.533771  0.000000
  -2271.533771  -160.838350  0.000000
  0.000000  0.000000  0.000000


  1964.026013  -1303.047768  0.000000
  -1303.047768  -952.002134  0.000000
  0.000000  0.000000  0.000000


  4353.993069  -2071.040494  0.000000
  -2071.040494  -272.788285  0.000000
  0.000000  0.000000  0.000000


  1666.707953  -1222.090318  0.000000
  -1222.090318  -928.541296  0.000000
  0.000000  0.000000  0.000000


  3670.455063  -1859.717406  0.000000
  -1859.717406  -383.824555  0.000000
  0.000000  0.000000  0.000000


  1369.996576  -1129.977417  0.000000
  -1129.977417  -903.581949  0.000000
  0.000000  0.000000  0.000000


  2993.001159  -1640.309574  0.000000
  -1640.309574  -486.900191  0.000000
  0.000000  0.000000  0.000000


  1085.912103  -1025.849938  0.000000
  -1025.849938  -879.186732  0.000000
  0.000000  0.000000  0.000000


  2347.623523  -1416.894282  0.000000
  -1416.894282  -578.050014  0.000000
  0.000000  0.000000  0.000000


  825.817105  -910.151384  0.000000
  -910.151384  -857.277980  0.000000
  0.000000  0.000000  0.000000


  1757.338851  -1193.700962  0.000000
  -1193.700962  -655.622269  0.000000
  0.000000  0.000000  0.000000


  599.527232  -783.897158  0.000000
  -783.897158  -838.498819  0.000000
  0.000000  0.000000  0.000000


  1240.406619  -974.112785  0.000000
  -974.112785  -719.231214  0.000000
  0.000000  0.000000  0.000000


  414.941554  -647.507440  0.000000
  -647.507440  -819.998103  0.000000
  0.000000  0.000000  0.000000


  810.463598  -759.433676  0.000000
  -759.433676  -768.251586  0.000000
  0.000000  0.000000  0.000000


  277.433888  -498.918687  0.000000
  -498.918687  -788.504836  0.000000
  0.000000  0.000000  0.000000


  478.191520  -546.557048  0.000000
  -546.557048  -798.910930  0.000000
  0.000000  0.000000  0.000000


  187.011837  -333.015186  0.000000
  -333.015186  -694.437839  0.000000
  0.000000  0.000000  0.000000


  251.392454  -323.438706  0.000000
  -323.438706  -797.131179  0.000000
  0.000000  0.000000  0.000000


  129.691605  -168.264960  0.000000
  -168.264960  -484.248487  0.000000
  0.000000  0.000000  0.000000


  68.662840  -90.576449  0.000000
  -90.576449  -733.792007  0.000000
  0.000000  0.000000  0.000000


  89.575231  -49.368977  0.000000
  -49.368977  -243.256072  0.000000
  0.000000  0.000000  0.000000


  26.352437  35.330050  0.000000
  35.330050  -518.667940  0.000000
  0.000000  0.000000  0.000000


  58.920286  15.816223  0.000000
  15.816223  58.193840  0.000000
  0.000000  0.000000  0.000000


  -24.061394  121.421334  0.000000
  121.421334  -281.178973  0.000000
  0.000000  0.000000  0.000000


  8299.088722  -1466.022800  0.000000
  -1466.022800  -843.647883  0.000000
  0.000000  0.000000  0.000000


  25767.333723  -6860.137759  0.000000
  -6860.137759  8580.522130  0.000000
  0.000000  0.000000  0.000000


  7770.694890  -1437.388517  0.000000
  -1437.388517  -1564.070891  0.000000
  0.000000  0.000000  0.000000


  13051.079575  -2800.770581  0.000000
  -2800.770581  613.797740  0.000000
  0.000000  0.000000  0.000000


  7293.777727  -1383.300460  0.000000
  -1383.300460  -1528.603808  0.000000
  0.000000  0.000000  0.000000


  13441.380026  -2759.349279  0.000000
  -2759.349279  487.321946  0.000000
  0.000000  0.000000  0.000000


  6789.084698  -1305.606465  0.000000
  -1305.606465  -1454.896224  0.000000
  0.000000  0.000000  0.000000


  12546.508278  -2619.229785  0.000000
  -2619.229785  320.176345  0.000000
  0.000000  0.000000  0.000000


  6290.955927  -1188.975311  0.000000
  -1188.975311  -1360.207795  0.000000
  0.000000  0.000000  0.000000


  11541.491542  -2440.416292  0.000000
  -2440.416292  204.183638  0.000000
  0.000000  0.000000  0.000000


  5790.650936  -1052.106660  0.000000
  -1052.106660  -1269.861138  0.000000
  0.000000  0.000000  0.000000


  10446.660238  -2216.544155  0.000000
  -2216.544155  78.099827  0.000000
  0.000000  0.000000  0.000000


  5264.653653  -913.988440  0.000000
  -913.988440  -1189.952913  0.000000
  0.000000  0.000000  0.000000


  9270.028063  -1958.794232  0.000000
  -1958.794232  -76.030928  0.000000
  0.000000  0.000000  0.000000


  4697.967753  -788.048573  0.000000
  -788.048573  -1120.198670  0.000000
  0.000000  0.000000  0.000000


  8040.635999  -1688.812962  0.000000
  -1688.812962  -245.219305  0.000000
  0.000000  0.000000  0.000000


  4092.659478  -681.011425  0.000000
  -681.011425  -1059.595437  0.000000
  0.000000  0.000000  0.000000


  6795.144662  -1425.212108  0.000000
  -1425.212108  -411.551843  0.000000
  0.000000  0.000000  0.000000


  3464.200386  -594.096557  0.000000
  -594.096557  -1007.734697  0.000000
  0.000000  0.000000  0.000000


  5573.093268  -1180.359036  0.000000
  -1180.359036  -562.205494  0.000000
  0.000000  0.000000  0.000000


  2835.609259  -524.623268  0.000000
  -524.623268  -964.562097  0.000000
  0.000000  0.000000  0.000000


  4411.983928  -960.563858  0.000000
  -960.563858  -690.635670  0.000000
  0.000000  0.000000  0.000000


  2231.865302  -467.904189  0.000000
  -467.904189  -929.970142  0.000000
  0.000000  0.000000  0.000000


  3343.520113  -767.510691  0.000000
  -767.510691  -795.101517  0.000000
  0.000000  0.000000  0.000000


  1675.819233  -418.954004  0.000000
  -418.954004  -903.544117  0.000000
  0.000000  0.000000  0.000000


  2391.386240  -599.911782  0.000000
  -599.911782  -876.839167  0.000000
  0.000000  0.000000  0.000000


  1186.047906  -373.541032  0.000000
  -373.541032  -884.434958  0.000000
  0.000000  0.000000  0.000000


  1570.752055  -454.823571  0.000000
  -454.823571  -938.541515  0.000000
  0.000000  0.000000  0.000000


  776.511073  -328.068460  0.000000
  -328.068460  -871.277309  0.000000
  0.000000  0.000000  0.000000


  889.751633  -328.174355  0.000000
  -328.174355  -983.094574  0.000000
  0.000000  0.000000  0.000000


  457.409820  -277.060569  0.000000
  -277.060569  -861.781331  0.000000
  0.000000  0.000000  0.000000


  354.178789  -213.667654  0.000000
  -213.667654  -1011.933511  0.000000
  0.000000  0.000000  0.000000


  235.584132  -203.894087  0.000000
  -203.894087  -844.711579  0.000000
  0.000000  0.000000  0.000000


  -18.317447  -96.406136  0.000000
  -96.406136  -1020.294242  0.000000
  0.000000  0.000000  0.000000


  106.376847  -53.456088  0.000000
  -53.456088  -620.543024  0.000000
  0.000000  0.000000  0.000000


  -130.014422  92.222633  0.000000
  92.222633  -966.694249  0.000000
  0.000000  0.000000  0.000000


  -7.685315  62.542773  0.000000
  62.542773  -620.876551  0.000000
  0.000000  0.000000  0.000000


  -167.012883  481.648322  0.000000
  481.648322  -711.994526  0.000000
  0.000000  0.000000  0.000000


  -41.743396  67.593043  0.000000
  67.593043  -334.324803  0.000000
  0.000000  0.000000  0.000000


  -224.958016  162.788812  0.000000
  162.788812  -56.633554  0.000000
  0.000000  0.000000  0.000000


SCALARS vonMisesStress double
LOOKUP_TABLE default
  74812.664846

  39132.004632

  88762.487729

  45327.815927

  9915.427892

  23912.404176

  62843.112506

  87106.429911

  44433.209050

  93596.305795

  117935.486386

  105647.649902

  43280.283583

  168033.662938

  90438.397376

  103931.846775

  57876.875260

  123077.935650

  16992.570048

  17182.457833

  145426.550049

  68677.340491

  289837.398232

  192422.393263

  335105.287844

  306378.518227

  154227.849288

  324962.302615

  565569.943398

  256221.649074

  205946.847759

  564360.996677

  352238.917199

  317030.347986

  368753.507930

  411277.930674

  417876.928553

  613658.261257

  468656.129392

  485095.087249

  5183.124044

  32417.558836

  61200.025810

  21833.308539

  63070.885364

  104293.947890

  98928.800463

  87064.882355

  76503.684799

  35316.780496

  212742.345451

  94174.606174

  89841.437826

  177940.171058

  89479.281516

  53443.360274

  198754.657733

  186321.385621

  73254.062784

  253113.848363

  65876.618519

  68495.291633

  294207.070627

  201032.690676

  223937.706071

  258601.242457

  254581.714877

  306506.914368

  271802.583101

  243831.064262

  550096.244068

  303743.408176

  491344.474572

  611124.139012

  337872.579598

  464891.812848

  699055.623125

  455207.266596

  533278.448631

  683847.325437

  21731.483450

  52666.617655

  52372.040017

  26515.280502

  86329.772376

  40988.417391

  129176.987205

  60078.951691

  39196.343459

  98771.781364

  145216.872377

  53652.289422

  68315.760413

  151161.440570

  137435.493086

  66010.841204

  293856.415987

  249220.418041

  190032.225778

  323679.009237

  223488.328451

  172290.686672

  60259.275186

  211117.680609

  283955.913619

  226977.989476

  316630.257599

  284624.222825

  234682.772156

  318402.992403

  312371.606616

  239024.830243

  679192.443132

  352881.265497

  286750.987933

  639919.660992

  459945.470830

  329125.656757

  635608.629823

  394190.617086

  55798.653735

  34217.145419

  10237.886397

  66993.952995

  157.285930

  39200.579766

  32287.212210

  21544.804398

  26810.907698

  38294.052868

  135073.121386

  59089.377466

  61753.291149

  123720.082532

  118958.743687

  47146.590424

  271808.377878

  97870.205973

  246023.247508

  188601.499705

  206668.705439

  196667.860458

  213844.344713

  255390.077748

  249906.193525

  235401.735459

  333786.139522

  325104.265626

  286318.683123

  310457.660475

  92283.951070

  313544.563571

  359262.388593

  359792.726144

  607288.458063

  378767.812818

  436991.527444

  591879.012330

  401903.911693

  405347.209208

  59162.443990

  24485.075173

  32847.612011

  63085.501318

  33289.515504

  23339.184120

  25448.194275

  33596.773320

  46395.313470

  24602.291317

  71313.896956

  74971.739722

  63690.573815

  46207.193890

  84115.371350

  112785.160719

  79351.914213

  118656.775235

  47838.470314

  79975.679077

  232753.253764

  71404.641830

  89247.128470

  203460.632897

  247585.724496

  186945.098049

  381832.139777

  226457.056617

  213624.732334

  430806.444377

  361198.636306

  309515.433927

  350766.800213

  303846.954397

  385200.535289

  323978.255311

  579404.031934

  396295.822169

  301429.183562

  581469.132650

  30332.959023

  0.000000

  23799.760999

  16122.075981

  9887.289891

  11128.314948

  64695.983854

  57262.500297

  20721.214086

  139961.635831

  86943.206628

  79437.427094

  32942.320194

  75007.301255

  148550.912599

  15838.764561

  67202.384699

  97722.958702

  64034.234975

  39651.828808

  72184.699118

  67129.609813

  219831.416464

  80225.689081

  187715.317898

  191097.036671

  225200.035490

  204263.518692

  492503.788955

  275428.336759

  355512.923486

  433407.719400

  298655.055889

  319356.186888

  329764.278117

  363504.945762

  352146.168361

  9494144.549976

  326764.965394

  1954403.548507
